
 displacements (vx,vy,vz) for set NALL and time  0.1000000E+01

         1 -3.528920E-04 -1.607265E-03  2.909952E-04
         2  2.414060E-04 -1.633822E-03 -1.853288E-03
         3 -9.424549E-04  4.428105E-04  2.771396E-04
         4 -3.226398E-04  4.979279E-04 -1.772741E-03
         5  0.000000E+00  0.000000E+00  0.000000E+00
         6  0.000000E+00  0.000000E+00  0.000000E+00
         7  0.000000E+00  0.000000E+00  0.000000E+00
         8  0.000000E+00  0.000000E+00  0.000000E+00
         9  6.497743E-03  1.465271E-03  1.423301E-03
        10  5.973524E-03  2.188986E-03  1.226248E-03
        11  6.107115E-03  1.379316E-03  2.142315E-03
        12  5.278299E-03  2.223176E-03  2.206754E-03
        13  0.000000E+00  0.000000E+00  0.000000E+00
        14  5.374170E-03  1.530415E-03  1.627616E-03
        15  4.172156E-03 -1.279326E-04 -2.888770E-04
        16 -6.402534E-05 -5.734986E-04 -1.805846E-03
        17  6.273579E-03  1.015862E-03  1.881209E-03
        18  3.442920E-03  1.444228E-03 -3.140252E-04
        19  0.000000E+00  0.000000E+00  0.000000E+00
        20  6.151863E-03  1.868375E-03  9.987790E-04
        21  3.545820E-03 -1.573950E-04  1.314125E-03
        22 -6.669789E-04 -5.836042E-04  2.690565E-04
        23  7.298184E-03  4.600588E-04  4.370063E-04
        24  2.781094E-03  1.422367E-03  1.325989E-03
        25 -8.075035E-05 -1.614211E-03 -7.858403E-04
        26  0.000000E+00  0.000000E+00  0.000000E+00
        27 -6.520539E-04  4.563826E-04 -7.493165E-04
        28  0.000000E+00  0.000000E+00  0.000000E+00
        29  0.000000E+00  0.000000E+00  0.000000E+00
        30  5.968876E-03  1.136728E-03  1.715788E-03
        31  6.208296E-03  1.828309E-03  1.351549E-03
        32  3.705176E-03  6.476975E-04 -3.319447E-04
        33  6.674510E-03  1.336536E-03  6.867144E-04
        34  5.648514E-03  1.774858E-03  2.144001E-03
        35  3.054681E-03  5.940299E-04  1.312598E-03
        36 -3.825444E-04 -5.764131E-04 -7.639972E-04
        37  5.854479E-03  1.664649E-03  1.156343E-03
        38  3.819112E-03 -1.351665E-04  5.335788E-04
        39  6.253031E-03  1.452062E-03  1.806114E-03
        40  6.662732E-03  6.703750E-04  1.318915E-03
        41  3.069055E-03  1.443477E-03  4.976009E-04
        42  5.567794E-03  2.180294E-03  1.715833E-03
        43  6.251519E-03  1.175361E-03  1.200113E-03
        44  5.885002E-03  1.835643E-03  1.790733E-03
        45  3.338236E-03  6.205920E-04  4.915932E-04

 stresses (elem, integ.pnt.,sxx,syy,szz,sxy,sxz,syz) for set EALL and time  0.1000000E+01

         1   1  3.404960E+00 -1.223741E+00 -1.146617E+01 -1.014816E+00  5.721404E-01  1.914876E+00
         1   2  1.400224E+00 -2.953124E+00 -1.263874E+01 -6.892873E-01  7.925952E-01  2.418160E-02
         1   3 -1.932021E-02  4.145572E+00  1.075800E+01  1.341622E-01 -1.077867E+00 -8.810057E-01
         1   4  8.558867E-01  2.410724E+00  5.031899E+00 -4.538675E-01 -8.363957E-01 -8.545765E-01
         2   1 -2.390976E-01 -6.281387E-01 -3.372011E-01 -4.253012E-01 -4.313375E-01 -3.639082E-02
         2   2 -7.078629E-01 -1.051329E+00  9.460542E-02  3.391396E-02  6.619598E-02 -1.109819E-01
         2   3 -4.586067E-01 -6.902739E-01  2.326885E-01  4.933190E-02 -3.895851E-01  2.906021E-01
         2   4  8.177110E-01  6.474442E-01  1.691349E-01 -5.346077E-02  3.495037E-01  1.078309E-01
         3   1 -3.738220E-01  5.244382E-02  5.043071E-02 -4.322174E-02 -5.119367E-02 -6.329539E-02
         3   2 -4.870176E-01 -1.365642E-01 -3.659017E-02 -8.585698E-02 -1.108073E-01  5.250735E-02
         3   3 -4.940118E-01 -4.307143E-02 -1.464103E-01 -1.050280E-01 -7.625476E-02  6.477853E-02
         3   4  8.967718E-01  1.138003E-01  1.116798E-01  1.910842E-01  1.655394E-01 -5.121702E-02
         4   1  4.012653E-01  3.057826E-02  5.455659E-01  1.235586E-01 -1.238112E-01  6.349248E-02
         4   2 -8.194046E-04 -3.368150E-01 -6.142789E-01  2.034512E-01  3.075178E-01 -1.461547E-01
         4   3  2.066455E-01  2.004212E-01 -5.374576E-02  2.225878E-01  2.561197E-01  1.619756E-01
         4   4  4.741484E-01  1.602642E-01  5.137134E-01  2.176972E-01 -5.926745E-03 -2.173092E-02
         5   1 -7.946980E-01 -4.942827E-01 -5.447915E-01 -1.912366E-01 -1.683255E-01 -2.154803E-01
         5   2  1.223945E+00  7.271678E-01  7.742165E-01  1.161181E-01  9.021013E-02  2.591346E-01
         5   3 -6.114285E-01 -1.081211E-01 -5.044171E-01 -1.959176E-01 -1.243099E-01 -8.182985E-03
         5   4 -6.040667E-01 -4.628108E-01 -1.156609E-01 -1.356655E-01 -1.859799E-01 -1.577666E-02
         6   1 -2.158509E-01 -5.325126E-01 -4.515843E-01 -3.866704E-01 -4.162330E-01 -4.108670E-02
         6   2 -6.757261E-01 -4.613765E-02 -8.915881E-01  2.110811E-01 -5.724646E-02 -1.256511E-01
         6   3  8.281455E-01  2.923749E-01  6.409637E-01  3.355626E-01  1.417774E-02  2.255109E-02
         6   4 -4.816843E-01 -1.251024E-01 -7.976278E-01 -1.806942E-01  6.804089E-02  3.420348E-01
         7   1  3.148795E-01  4.842984E-01 -1.212845E-01 -1.396304E-01  1.576929E-01  5.180396E-02
         7   2  1.572111E-01 -5.768416E-01 -1.511784E-01  3.266388E-01  8.790621E-02 -1.028829E-01
         7   3  4.376864E-01  4.768444E-01  1.206219E-01 -1.718879E-02  2.159821E-01 -1.329976E-02
         7   4  3.287772E-01 -3.254589E-02  1.220524E-01  2.782618E-01  2.770364E-01  1.119853E-01
         8   1  5.701030E-01  2.661561E-01  2.350779E-01  2.473974E-01  1.920553E-01 -8.597329E-02
         8   2 -5.767263E+00 -1.361109E+00 -2.493103E+00  1.062399E+00  1.121190E+00 -7.464096E-02
         8   3 -2.791280E+00 -2.396505E-01 -1.198247E+00  8.020567E-01  4.148892E-01  2.533118E-01
         8   4  4.664713E+00  1.415554E+00  2.781100E+00 -1.310904E+00 -5.274516E-01 -6.913113E-01
         9   1  6.199650E-01  3.396960E-01  1.887766E-01  2.972053E-01  1.410676E-01 -8.629576E-02
         9   2 -5.726302E+00 -2.197206E+00 -1.667618E+00  9.736955E-01  1.208750E+00 -6.498466E-02
         9   3  4.686756E+00  2.719609E+00  1.615152E+00 -6.160644E-01 -1.223586E+00 -7.749438E-01
         9   4 -2.704298E+00 -1.154649E+00 -6.016097E-01  4.111997E-01  8.008334E-01  3.444956E-01
        10   1 -5.437203E+00 -2.644227E+01 -2.765793E+01  8.276053E-01  9.432501E-01  1.482137E-01
        10   2 -4.193540E-01 -2.423150E+01 -2.544716E+01 -1.315881E-01 -8.004705E-02  1.482137E-01
        10   3 -3.379018E+00 -2.551852E+01 -2.673417E+01  1.043734E+00  2.548021E-01  1.482137E-01
        10   4  6.954096E+00  1.762891E+01  1.247931E+01 -1.762986E+00 -5.844363E-01  6.278434E-01
        11   1 -3.459645E+00 -2.680162E+01 -2.553961E+01  2.300758E-01  1.008848E+00  1.532041E-01
        11   2 -4.441059E-01 -2.549031E+01 -2.422831E+01 -5.195025E-02 -1.737574E-01  1.532041E-01
        11   3 -5.461955E+00 -2.770109E+01 -2.643908E+01  9.072431E-01  8.495398E-01  1.532041E-01
        11   4  6.904522E+00  1.232019E+01  1.766614E+01 -5.323384E-01 -1.829156E+00  6.489831E-01
        12   1  1.094742E-01  1.057881E+01  3.957891E+00 -1.038625E+00  4.987185E-01 -7.917258E-01
        12   2  8.440135E-01  5.019593E+00  2.575092E+00 -9.132367E-01 -2.821124E-01 -7.648862E-01
        12   3  1.344229E+00 -1.260257E+01 -2.845529E+00  6.886793E-01 -8.322797E-01 -1.251042E-01
        12   4  3.283453E+00 -1.148053E+01 -1.218374E+00  5.266032E-01 -1.187474E+00  1.955865E+00
