    1C
    1UUSER                                                              
    1UDATE              22.january.2017                                 
    1UTIME              14:44:34                                        
    1UHOST                                                              
    1UPGM               CalculiX                                        
    1UVERSION           Version 2.10                             
    1UCOMPILETIME       Sa 5. MÃ¤r 12:23:33 CET 2016                    
    1UDIR                                                               
    1UDBN                                                               
    1UMAT    1MECHANICALMATERIAL                                        
    2C                           280                                     1
 -1         1 0.00000E+00 0.00000E+00 0.00000E+00
 -1         2 0.00000E+00 0.00000E+00 1.00000E+01
 -1         3 0.00000E+00 1.00000E+01 0.00000E+00
 -1         4 0.00000E+00 1.00000E+01 1.00000E+01
 -1         5 1.00000E+01 0.00000E+00 0.00000E+00
 -1         6 1.00000E+01 0.00000E+00 1.00000E+01
 -1         7 1.00000E+01 1.00000E+01 0.00000E+00
 -1         8 1.00000E+01 1.00000E+01 1.00000E+01
 -1         9 0.00000E+00 0.00000E+00 5.00000E+00
 -1        10 0.00000E+00 0.00000E+00 2.50000E+00
 -1        11 0.00000E+00 0.00000E+00 7.50000E+00
 -1        12 0.00000E+00 5.00000E+00 0.00000E+00
 -1        13 0.00000E+00 2.50000E+00 0.00000E+00
 -1        14 0.00000E+00 7.50000E+00 0.00000E+00
 -1        15 0.00000E+00 1.00000E+01 5.00000E+00
 -1        16 0.00000E+00 1.00000E+01 2.50000E+00
 -1        17 0.00000E+00 1.00000E+01 7.50000E+00
 -1        18 0.00000E+00 5.00000E+00 1.00000E+01
 -1        19 0.00000E+00 2.50000E+00 1.00000E+01
 -1        20 0.00000E+00 7.50000E+00 1.00000E+01
 -1        21 1.00000E+01 0.00000E+00 5.00000E+00
 -1        22 1.00000E+01 0.00000E+00 2.50000E+00
 -1        23 1.00000E+01 0.00000E+00 7.50000E+00
 -1        24 1.00000E+01 5.00000E+00 0.00000E+00
 -1        25 1.00000E+01 2.50000E+00 0.00000E+00
 -1        26 1.00000E+01 7.50000E+00 0.00000E+00
 -1        27 1.00000E+01 1.00000E+01 5.00000E+00
 -1        28 1.00000E+01 1.00000E+01 2.50000E+00
 -1        29 1.00000E+01 1.00000E+01 7.50000E+00
 -1        30 1.00000E+01 5.00000E+00 1.00000E+01
 -1        31 1.00000E+01 2.50000E+00 1.00000E+01
 -1        32 1.00000E+01 7.50000E+00 1.00000E+01
 -1        33 5.00000E+00 0.00000E+00 0.00000E+00
 -1        34 2.50000E+00 0.00000E+00 0.00000E+00
 -1        35 7.50000E+00 0.00000E+00 0.00000E+00
 -1        36 5.00000E+00 0.00000E+00 1.00000E+01
 -1        37 2.50000E+00 0.00000E+00 1.00000E+01
 -1        38 7.50000E+00 0.00000E+00 1.00000E+01
 -1        39 5.00000E+00 1.00000E+01 0.00000E+00
 -1        40 2.50000E+00 1.00000E+01 0.00000E+00
 -1        41 7.50000E+00 1.00000E+01 0.00000E+00
 -1        42 5.00000E+00 1.00000E+01 1.00000E+01
 -1        43 2.50000E+00 1.00000E+01 1.00000E+01
 -1        44 7.50000E+00 1.00000E+01 1.00000E+01
 -1        45 0.00000E+00 5.00000E+00 5.00000E+00
 -1        46 0.00000E+00 2.50000E+00 7.50000E+00
 -1        47 0.00000E+00 2.50000E+00 2.50000E+00
 -1        48 0.00000E+00 7.50000E+00 7.50000E+00
 -1        49 0.00000E+00 7.50000E+00 2.50000E+00
 -1        50 0.00000E+00 1.25000E+00 8.75000E+00
 -1        51 0.00000E+00 1.25000E+00 6.25000E+00
 -1        52 0.00000E+00 2.50000E+00 5.00000E+00
 -1        53 0.00000E+00 3.75000E+00 6.25000E+00
 -1        54 0.00000E+00 1.25000E+00 3.75000E+00
 -1        55 0.00000E+00 1.25000E+00 1.25000E+00
 -1        56 0.00000E+00 3.75000E+00 3.75000E+00
 -1        57 0.00000E+00 3.75000E+00 1.25000E+00
 -1        58 0.00000E+00 5.00000E+00 2.50000E+00
 -1        59 0.00000E+00 6.25000E+00 1.25000E+00
 -1        60 0.00000E+00 8.75000E+00 1.25000E+00
 -1        61 0.00000E+00 6.25000E+00 3.75000E+00
 -1        62 0.00000E+00 3.75000E+00 8.75000E+00
 -1        63 0.00000E+00 5.00000E+00 7.50000E+00
 -1        64 0.00000E+00 8.75000E+00 6.25000E+00
 -1        65 0.00000E+00 8.75000E+00 8.75000E+00
 -1        66 0.00000E+00 6.25000E+00 6.25000E+00
 -1        67 0.00000E+00 7.50000E+00 5.00000E+00
 -1        68 0.00000E+00 6.25000E+00 8.75000E+00
 -1        69 0.00000E+00 8.75000E+00 3.75000E+00
 -1        70 1.00000E+01 5.00000E+00 5.00000E+00
 -1        71 1.00000E+01 2.50000E+00 7.50000E+00
 -1        72 1.00000E+01 7.50000E+00 7.50000E+00
 -1        73 1.00000E+01 7.50000E+00 2.50000E+00
 -1        74 1.00000E+01 2.50000E+00 2.50000E+00
 -1        75 1.00000E+01 6.25000E+00 8.75000E+00
 -1        76 1.00000E+01 8.75000E+00 8.75000E+00
 -1        77 1.00000E+01 8.75000E+00 6.25000E+00
 -1        78 1.00000E+01 5.00000E+00 7.50000E+00
 -1        79 1.00000E+01 6.25000E+00 6.25000E+00
 -1        80 1.00000E+01 7.50000E+00 5.00000E+00
 -1        81 1.00000E+01 6.25000E+00 1.25000E+00
 -1        82 1.00000E+01 8.75000E+00 1.25000E+00
 -1        83 1.00000E+01 8.75000E+00 3.75000E+00
 -1        84 1.00000E+01 6.25000E+00 3.75000E+00
 -1        85 1.00000E+01 5.00000E+00 2.50000E+00
 -1        86 1.00000E+01 3.75000E+00 1.25000E+00
 -1        87 1.00000E+01 1.25000E+00 1.25000E+00
 -1        88 1.00000E+01 1.25000E+00 3.75000E+00
 -1        89 1.00000E+01 3.75000E+00 3.75000E+00
 -1        90 1.00000E+01 2.50000E+00 5.00000E+00
 -1        91 1.00000E+01 3.75000E+00 8.75000E+00
 -1        92 1.00000E+01 1.25000E+00 8.75000E+00
 -1        93 1.00000E+01 3.75000E+00 6.25000E+00
 -1        94 1.00000E+01 1.25000E+00 6.25000E+00
 -1        95 5.00000E+00 0.00000E+00 5.00000E+00
 -1        96 7.50000E+00 0.00000E+00 7.50000E+00
 -1        97 7.50000E+00 0.00000E+00 2.50000E+00
 -1        98 2.50000E+00 0.00000E+00 2.50000E+00
 -1        99 2.50000E+00 0.00000E+00 7.50000E+00
 -1       100 1.25000E+00 0.00000E+00 1.25000E+00
 -1       101 1.25000E+00 0.00000E+00 3.75000E+00
 -1       102 2.50000E+00 0.00000E+00 5.00000E+00
 -1       103 3.75000E+00 0.00000E+00 3.75000E+00
 -1       104 3.75000E+00 0.00000E+00 6.25000E+00
 -1       105 1.25000E+00 0.00000E+00 6.25000E+00
 -1       106 1.25000E+00 0.00000E+00 8.75000E+00
 -1       107 6.25000E+00 0.00000E+00 6.25000E+00
 -1       108 6.25000E+00 0.00000E+00 8.75000E+00
 -1       109 5.00000E+00 0.00000E+00 7.50000E+00
 -1       110 7.50000E+00 0.00000E+00 5.00000E+00
 -1       111 8.75000E+00 0.00000E+00 6.25000E+00
 -1       112 8.75000E+00 0.00000E+00 8.75000E+00
 -1       113 6.25000E+00 0.00000E+00 3.75000E+00
 -1       114 8.75000E+00 0.00000E+00 3.75000E+00
 -1       115 5.00000E+00 0.00000E+00 2.50000E+00
 -1       116 6.25000E+00 0.00000E+00 1.25000E+00
 -1       117 8.75000E+00 0.00000E+00 1.25000E+00
 -1       118 3.75000E+00 0.00000E+00 1.25000E+00
 -1       119 3.75000E+00 0.00000E+00 8.75000E+00
 -1       120 5.00000E+00 1.00000E+01 5.00000E+00
 -1       121 7.50000E+00 1.00000E+01 2.50000E+00
 -1       122 2.50000E+00 1.00000E+01 2.50000E+00
 -1       123 7.50000E+00 1.00000E+01 7.50000E+00
 -1       124 2.50000E+00 1.00000E+01 7.50000E+00
 -1       125 6.25000E+00 1.00000E+01 8.75000E+00
 -1       126 6.25000E+00 1.00000E+01 6.25000E+00
 -1       127 5.00000E+00 1.00000E+01 7.50000E+00
 -1       128 8.75000E+00 1.00000E+01 8.75000E+00
 -1       129 3.75000E+00 1.00000E+01 8.75000E+00
 -1       130 3.75000E+00 1.00000E+01 6.25000E+00
 -1       131 1.25000E+00 1.00000E+01 8.75000E+00
 -1       132 6.25000E+00 1.00000E+01 1.25000E+00
 -1       133 5.00000E+00 1.00000E+01 2.50000E+00
 -1       134 6.25000E+00 1.00000E+01 3.75000E+00
 -1       135 8.75000E+00 1.00000E+01 1.25000E+00
 -1       136 8.75000E+00 1.00000E+01 3.75000E+00
 -1       137 7.50000E+00 1.00000E+01 5.00000E+00
 -1       138 1.25000E+00 1.00000E+01 3.75000E+00
 -1       139 2.50000E+00 1.00000E+01 5.00000E+00
 -1       140 3.75000E+00 1.00000E+01 3.75000E+00
 -1       141 1.25000E+00 1.00000E+01 1.25000E+00
 -1       142 3.75000E+00 1.00000E+01 1.25000E+00
 -1       143 8.75000E+00 1.00000E+01 6.25000E+00
 -1       144 1.25000E+00 1.00000E+01 6.25000E+00
 -1       145 5.00000E+00 5.00000E+00 0.00000E+00
 -1       146 2.50000E+00 7.50000E+00 0.00000E+00
 -1       147 7.50000E+00 7.50000E+00 0.00000E+00
 -1       148 7.50000E+00 2.50000E+00 0.00000E+00
 -1       149 2.50000E+00 2.50000E+00 0.00000E+00
 -1       150 1.25000E+00 3.75000E+00 0.00000E+00
 -1       151 1.25000E+00 1.25000E+00 0.00000E+00
 -1       152 2.50000E+00 5.00000E+00 0.00000E+00
 -1       153 1.25000E+00 6.25000E+00 0.00000E+00
 -1       154 3.75000E+00 6.25000E+00 0.00000E+00
 -1       155 3.75000E+00 3.75000E+00 0.00000E+00
 -1       156 1.25000E+00 8.75000E+00 0.00000E+00
 -1       157 3.75000E+00 1.25000E+00 0.00000E+00
 -1       158 3.75000E+00 8.75000E+00 0.00000E+00
 -1       159 5.00000E+00 7.50000E+00 0.00000E+00
 -1       160 6.25000E+00 8.75000E+00 0.00000E+00
 -1       161 6.25000E+00 6.25000E+00 0.00000E+00
 -1       162 8.75000E+00 8.75000E+00 0.00000E+00
 -1       163 8.75000E+00 6.25000E+00 0.00000E+00
 -1       164 7.50000E+00 5.00000E+00 0.00000E+00
 -1       165 8.75000E+00 3.75000E+00 0.00000E+00
 -1       166 6.25000E+00 3.75000E+00 0.00000E+00
 -1       167 6.25000E+00 1.25000E+00 0.00000E+00
 -1       168 5.00000E+00 2.50000E+00 0.00000E+00
 -1       169 8.75000E+00 1.25000E+00 0.00000E+00
 -1       170 5.00000E+00 5.00000E+00 1.00000E+01
 -1       171 7.50000E+00 7.50000E+00 1.00000E+01
 -1       172 7.50000E+00 2.50000E+00 1.00000E+01
 -1       173 2.50000E+00 7.50000E+00 1.00000E+01
 -1       174 2.50000E+00 2.50000E+00 1.00000E+01
 -1       175 3.75000E+00 8.75000E+00 1.00000E+01
 -1       176 1.25000E+00 8.75000E+00 1.00000E+01
 -1       177 3.75000E+00 6.25000E+00 1.00000E+01
 -1       178 5.00000E+00 7.50000E+00 1.00000E+01
 -1       179 6.25000E+00 8.75000E+00 1.00000E+01
 -1       180 8.75000E+00 8.75000E+00 1.00000E+01
 -1       181 6.25000E+00 6.25000E+00 1.00000E+01
 -1       182 6.25000E+00 1.25000E+00 1.00000E+01
 -1       183 6.25000E+00 3.75000E+00 1.00000E+01
 -1       184 5.00000E+00 2.50000E+00 1.00000E+01
 -1       185 8.75000E+00 1.25000E+00 1.00000E+01
 -1       186 8.75000E+00 3.75000E+00 1.00000E+01
 -1       187 7.50000E+00 5.00000E+00 1.00000E+01
 -1       188 1.25000E+00 6.25000E+00 1.00000E+01
 -1       189 2.50000E+00 5.00000E+00 1.00000E+01
 -1       190 3.75000E+00 1.25000E+00 1.00000E+01
 -1       191 3.75000E+00 3.75000E+00 1.00000E+01
 -1       192 1.25000E+00 1.25000E+00 1.00000E+01
 -1       193 1.25000E+00 3.75000E+00 1.00000E+01
 -1       194 8.75000E+00 6.25000E+00 1.00000E+01
 -1       195 3.75000E+00 6.25000E+00 6.25000E+00
 -1       196 6.25000E+00 3.75000E+00 3.75000E+00
 -1       197 1.25000E+00 1.25000E+00 2.50000E+00
 -1       198 2.50000E+00 1.25000E+00 3.75000E+00
 -1       199 4.37500E+00 1.87500E+00 3.12500E+00
 -1       200 5.62500E+00 1.87500E+00 4.37500E+00
 -1       201 3.12500E+00 3.12500E+00 3.12500E+00
 -1       202 6.25000E+00 7.50000E+00 1.25000E+00
 -1       203 7.50000E+00 8.75000E+00 1.25000E+00
 -1       204 6.87500E+00 6.87500E+00 3.12500E+00
 -1       205 6.87500E+00 5.62500E+00 1.87500E+00
 -1       206 5.62500E+00 4.37500E+00 1.87500E+00
 -1       207 8.75000E+00 7.50000E+00 3.75000E+00
 -1       208 8.75000E+00 8.75000E+00 2.50000E+00
 -1       209 7.50000E+00 6.25000E+00 8.75000E+00
 -1       210 8.75000E+00 7.50000E+00 8.75000E+00
 -1       211 8.75000E+00 3.75000E+00 7.50000E+00
 -1       212 8.75000E+00 2.50000E+00 8.75000E+00
 -1       213 3.75000E+00 2.50000E+00 8.75000E+00
 -1       214 2.50000E+00 1.25000E+00 8.75000E+00
 -1       215 1.25000E+00 2.50000E+00 1.25000E+00
 -1       216 2.50000E+00 3.75000E+00 1.25000E+00
 -1       217 8.75000E+00 7.50000E+00 6.25000E+00
 -1       218 8.75000E+00 8.75000E+00 7.50000E+00
 -1       219 7.50000E+00 7.50000E+00 5.00000E+00
 -1       220 5.62500E+00 6.87500E+00 4.37500E+00
 -1       221 8.12500E+00 4.37500E+00 4.37500E+00
 -1       222 7.50000E+00 5.00000E+00 7.50000E+00
 -1       223 6.87500E+00 3.12500E+00 6.87500E+00
 -1       224 5.62500E+00 4.37500E+00 6.87500E+00
 -1       225 5.00000E+00 2.50000E+00 7.50000E+00
 -1       226 3.12500E+00 3.12500E+00 6.87500E+00
 -1       227 4.37500E+00 3.12500E+00 5.62500E+00
 -1       228 4.37500E+00 5.62500E+00 8.12500E+00
 -1       229 2.50000E+00 5.00000E+00 2.50000E+00
 -1       230 3.12500E+00 4.37500E+00 4.37500E+00
 -1       231 5.62500E+00 8.12500E+00 6.87500E+00
 -1       232 6.87500E+00 5.62500E+00 5.62500E+00
 -1       233 4.37500E+00 8.12500E+00 5.62500E+00
 -1       234 2.50000E+00 2.50000E+00 5.00000E+00
 -1       235 5.00000E+00 7.50000E+00 2.50000E+00
 -1       236 4.37500E+00 5.62500E+00 3.12500E+00
 -1       237 1.87500E+00 5.62500E+00 5.62500E+00
 -1       238 5.00000E+00 5.00000E+00 5.00000E+00
 -1       239 8.75000E+00 2.50000E+00 1.25000E+00
 -1       240 8.12500E+00 4.37500E+00 1.87500E+00
 -1       241 8.12500E+00 3.12500E+00 3.12500E+00
 -1       242 6.87500E+00 3.12500E+00 1.87500E+00
 -1       243 8.75000E+00 1.25000E+00 2.50000E+00
 -1       244 8.12500E+00 1.87500E+00 4.37500E+00
 -1       245 6.87500E+00 1.87500E+00 3.12500E+00
 -1       246 7.50000E+00 1.25000E+00 1.25000E+00
 -1       247 5.62500E+00 1.87500E+00 1.87500E+00
 -1       248 2.50000E+00 8.75000E+00 8.75000E+00
 -1       249 3.12500E+00 8.12500E+00 6.87500E+00
 -1       250 3.12500E+00 6.87500E+00 8.12500E+00
 -1       251 4.37500E+00 8.12500E+00 8.12500E+00
 -1       252 1.25000E+00 8.75000E+00 7.50000E+00
 -1       253 1.87500E+00 8.12500E+00 5.62500E+00
 -1       254 1.87500E+00 6.87500E+00 6.87500E+00
 -1       255 1.25000E+00 7.50000E+00 8.75000E+00
 -1       256 1.87500E+00 5.62500E+00 8.12500E+00
 -1       257 3.12500E+00 8.12500E+00 4.37500E+00
 -1       258 6.87500E+00 1.87500E+00 5.62500E+00
 -1       259 1.87500E+00 4.37500E+00 6.87500E+00
 -1       260 1.25000E+00 8.75000E+00 2.50000E+00
 -1       261 1.25000E+00 7.50000E+00 1.25000E+00
 -1       262 8.75000E+00 7.50000E+00 1.25000E+00
 -1       263 7.50000E+00 1.25000E+00 8.75000E+00
 -1       264 1.25000E+00 2.50000E+00 8.75000E+00
 -1       265 2.50000E+00 1.25000E+00 1.25000E+00
 -1       266 1.25000E+00 1.25000E+00 7.50000E+00
 -1       267 7.50000E+00 8.75000E+00 8.75000E+00
 -1       268 2.50000E+00 8.75000E+00 1.25000E+00
 -1       269 8.75000E+00 1.25000E+00 7.50000E+00
 -1       270 8.75000E+00 6.25000E+00 2.50000E+00
 -1       271 1.25000E+00 6.25000E+00 2.50000E+00
 -1       272 3.12500E+00 6.87500E+00 3.12500E+00
 -1       273 3.75000E+00 2.50000E+00 1.25000E+00
 -1       274 6.25000E+00 1.25000E+00 7.50000E+00
 -1       275 8.75000E+00 2.50000E+00 6.25000E+00
 -1       276 1.25000E+00 2.50000E+00 6.25000E+00
 -1       277 6.25000E+00 7.50000E+00 8.75000E+00
 -1       278 3.75000E+00 8.75000E+00 2.50000E+00
 -1       279 2.50000E+00 3.75000E+00 8.75000E+00
 -1       280 1.25000E+00 7.50000E+00 3.75000E+00
 -3
    3C                           129                                     1
 -1         1    6    0    1
 -2        95        98        47       196       103       197       198       200       199       201
 -1         2    6    0    1
 -2       147       121       145       196       203       202       161       205       204       206
 -1         3    6    0    1
 -2        73        70        27       121        84        80        83       208       207       136
 -1         4    6    0    1
 -2        72       170        30       171       209       187        75       210       181       194
 -1         5    6    0    1
 -2         9        98        47        95       101       197        54       102       103       198
 -1         6    6    0    1
 -2       172        70        30        71       211        78       186       212        93        91
 -1         7    6    0    1
 -2       170        99        36       174       213       119       184       191       214       190
 -1         8    6    0    1
 -2        12        47       149       145        57       215       150       152       216       155
 -1         9    6    0    1
 -2        70        27       123        72        80       143       217        79        77       218
 -1        10    6    0    1
 -2        39       147       121       145       160       203       132       159       161       202
 -1        11    6    0    1
 -2        70       120       121       196       219       134       207       221       220       204
 -1        12    6    0    1
 -2        70       172       170       196       211       183       222       221       223       224
 -1        13    6    0    1
 -2        95        99       170       195       104       213       225       227       226       228
 -1        14    6    0    1
 -2       145        45        47       196       229        56       216       206       230       201
 -1        15    6    0    1
 -2        70       123       120       195       217       126       219       232       231       233
 -1        16    6    0    1
 -2        47        45        95       196        56       234       198       201       230       200
 -1        17    6    0    1
 -2       121       120       145       196       134       235       202       204       220       206
 -1        18    6    0    1
 -2       145        39       120       121       159       133       235       202       132       134
 -1        19    6    0    1
 -2        70       120        27       121       219       137        80       207       134       136
 -1        20    6    0    1
 -2         9        47        45        95        54        56        52       102       198       234
 -1        21    6    0    1
 -2        70        27       120       123        80       137       219       217       143       126
 -1        22    6    0    1
 -2        45        47        12       145        56        57        58       229       216       152
 -1        23    6    0    1
 -2       170        95        36        99       225       109       184       213       104       119
 -1        24    6    0    1
 -2       195        45       145       196       237       229       236       238       230       206
 -1        25    6    0    1
 -2        95        45       195       196       234       237       227       200       230       238
 -1        26    6    0    1
 -2       170        95       195       196       225       227       228       224       200       238
 -1        27    6    0    1
 -2        70       170       195       196       222       228       232       221       224       238
 -1        28    6    0    1
 -2       195       120        70       196       233       219       232       238       220       221
 -1        29    6    0    1
 -2       145       120       195       196       235       233       236       206       220       238
 -1        30    6    0    1
 -2        74        24       148       196        86       165       239       241       240       242
 -1        31    6    0    1
 -2        21        74        97       196        88       243       114       244       241       245
 -1        32    6    0    1
 -2       148        33        97       196       167       116       246       242       247       245
 -1        33    6    0    1
 -2       173       124        42       195       248       129       175       250       249       251
 -1        34    6    0    1
 -2        48        15       124       195        64       144       252       254       253       249
 -1        35    6    0    1
 -2        18        48       173       195        68       255       188       256       254       250
 -1        36    6    0    1
 -2        74        70        24       196        89        85        86       241       221       240
 -1        37    6    0    1
 -2       170        18       173       195       189       188       177       228       256       250
 -1        38    6    0    1
 -2        70        74        21       196        89        88        90       221       241       244
 -1        39    6    0    1
 -2       120       123        42       195       126       125       127       233       231       251
 -1        40    6    0    1
 -2       170       173        42       195       177       175       178       228       250       251
 -1        41    6    0    1
 -2        42       124       120       195       129       130       127       251       249       233
 -1        42    6    0    1
 -2        15       122       120       195       138       140       139       253       257       233
 -1        43    6    0    1
 -2       124        15       120       195       144       139       130       249       253       233
 -1        44    6    0    1
 -2        15        48        45       195        64        66        67       253       254       237
 -1        45    6    0    1
 -2        24       147       145       196       163       161       164       240       205       206
 -1        46    6    0    1
 -2        95        97        33       196       113       116       115       200       245       247
 -1        47    6    0    1
 -2        33        98        95       196       118       103       115       247       199       200
 -1        48    6    0    1
 -2        95        96        21       196       107       111       110       200       258       244
 -1        49    6    0    1
 -2        97        95        21       196       113       110       114       245       200       244
 -1        50    6    0    1
 -2       145        33       148       196       168       167       166       206       247       242
 -1        51    6    0    1
 -2        24       145       148       196       164       166       165       240       206       242
 -1        52    6    0    1
 -2        18        45        48       195        63        66        68       256       237       254
 -1        53    6    0    1
 -2        45        18        46       195        63        62        53       237       256       259
 -1        54    6    0    1
 -2        48       124       173       195       252       248       255       254       249       250
 -1        55    6    0    1
 -2       148        97        74       196       246       243       239       242       245       241
 -1        56    6    0    1
 -2        74        24         5       148        86        25        87       239       165       169
 -1        57    6    0    1
 -2         3        49       122        15        60       260       141        16        69       138
 -1        58    6    0    1
 -2       146        12        49         3       153        59       261       156        14        60
 -1        59    6    0    1
 -2        15       124         4        48       144       131        17        64       252        65
 -1        60    6    0    1
 -2       149         1        47        12       151        55       215       150        13        57
 -1        61    6    0    1
 -2       147         7        73        24       162        82       262       163        26        81
 -1        62    6    0    1
 -2        36       172         6        96       182       185        38       108       263       112
 -1        63    6    0    1
 -2        98        47         1         9       197        55       100       101        54        10
 -1        64    6    0    1
 -2         2       174        46        18       192       264        50        19       193        62
 -1        65    6    0    1
 -2         1       149        98        33       151       265       100        34       157       118
 -1        66    6    0    1
 -2        48       173         4        18       255       176        65        68       188        20
 -1        67    6    0    1
 -2        30        72       171         8        75       210       194        32        76       180
 -1        68    6    0    1
 -2        97        21         5        74       114        22       117       243        88        87
 -1        69    6    0    1
 -2         9        46         2        99        51        50        11       105       266       106
 -1        70    6    0    1
 -2         8       123       171        42       128       267       180        44       125       179
 -1        71    6    0    1
 -2        97         5        33       148       117        35       116       246       169       167
 -1        72    6    0    1
 -2        99       174         2        36       214       192       106       119       190        37
 -1        73    6    0    1
 -2       173       124         4        42       248       131       176       175       129        43
 -1        74    6    0    1
 -2         3       122       146        39       141       268       156        40       142       158
 -1        75    6    0    1
 -2         8        72       123        27        76       218       128        29        77       143
 -1        76    6    0    1
 -2        71       172         6        30       212       185        92        91       186        31
 -1        77    6    0    1
 -2       147       121         7        39       203       135       162       160       132        41
 -1        78    6    0    1
 -2        73       121        27         7       208       136        83        82       135        28
 -1        79    6    0    1
 -2        71         6        96        21        92       112       269        94        23       111
 -1        80    6    0    1
 -2       146        49       122         3       261       260       268       156        60       141
 -1        81    6    0    1
 -2         2        46       174        99        50       264       192       106       266       214
 -1        82    6    0    1
 -2       123       171        72         8       267       210       218       128       180        76
 -1        83    6    0    1
 -2         7        73       121       147        82       208       135       162       262       203
 -1        84    6    0    1
 -2       173         4       124        48       176       131       248       255        65       252
 -1        85    6    0    1
 -2        96       172         6        71       263       185       112       269       212        92
 -1        86    6    0    1
 -2        74         5        97       148        87       117       243       239       169       246
 -1        87    6    0    1
 -2         1        98       149        47       100       265       151        55       197       215
 -1        88    6    0    1
 -2       147       121        70        73       203       207       270       262       208        84
 -1        89    6    0    1
 -2       121       147        70       196       203       270       207       204       205       221
 -1        90    6    0    1
 -2       147        70        24        73       270        85       163       262        84        81
 -1        91    6    0    1
 -2        70       147        24       196       270       163        85       221       205       240
 -1        92    6    0    1
 -2       146       195        45       145       272       237       271       154       236       229
 -1        93    6    0    1
 -2        12        45       146        49        58       271       153        59        61       261
 -1        94    6    0    1
 -2       146        45        12       145       271        58       153       154       229       152
 -1        95    6    0    1
 -2        98        47       145       149       197       216       273       265       215       155
 -1        96    6    0    1
 -2       145        47        98       196       216       197       273       206       201       199
 -1        97    6    0    1
 -2        33        98       145       149       118       273       168       157       265       155
 -1        98    6    0    1
 -2       145        98        33       196       273       118       168       206       199       247
 -1        99    6    0    1
 -2        95       196       172        96       200       223       274       107       258       263
 -1       100    6    0    1
 -2       172       196        95       170       223       200       274       183       224       225
 -1       101    6    0    1
 -2        36        95       172        96       109       274       182       108       107       263
 -1       102    6    0    1
 -2       172        95        36       170       274       109       182       183       225       184
 -1       103    6    0    1
 -2        96        70       172        71       275       211       263       269        93       212
 -1       104    6    0    1
 -2       172        70        96       196       211       275       263       223       221       258
 -1       105    6    0    1
 -2        96        21        70        71       111        90       275       269        94        93
 -1       106    6    0    1
 -2        70        21        96       196        90       111       275       221       244       258
 -1       107    6    0    1
 -2        45       195        99        95       237       226       276       234       227       104
 -1       108    6    0    1
 -2        99       195        45        46       226       237       276       266       259        53
 -1       109    6    0    1
 -2         9        45        99        95        52       276       105       102       234       104
 -1       110    6    0    1
 -2        99        45         9        46       276        52       105       266        53        51
 -1       111    6    0    1
 -2       123       170        72       171       277       209       218       267       181       210
 -1       112    6    0    1
 -2        42       170       123       171       178       277       125       179       181       267
 -1       113    6    0    1
 -2       170        42       123       195       178       125       277       228       251       231
 -1       114    6    0    1
 -2       170        70       123        72       222       217       277       209        79       218
 -1       115    6    0    1
 -2       123        70       170       195       217       222       277       231       232       228
 -1       116    6    0    1
 -2       120       146       195       122       278       272       233       140       268       257
 -1       117    6    0    1
 -2       146       120       195       145       278       233       272       154       235       236
 -1       118    6    0    1
 -2        39       146       120       122       158       278       133       142       268       140
 -1       119    6    0    1
 -2       146        39       120       145       158       133       278       154       159       235
 -1       120    6    0    1
 -2        46        99       170       174       266       213       279       264       214       191
 -1       121    6    0    1
 -2       170        99        46       195       213       266       279       228       226       259
 -1       122    6    0    1
 -2        18        46       170       174        62       279       189       193       264       191
 -1       123    6    0    1
 -2       170        46        18       195       279        62       189       228       259       256
 -1       124    6    0    1
 -2        70        30       170       172        78       187       222       211       186       183
 -1       125    6    0    1
 -2       170        30        70        72       187        78       222       209        75        79
 -1       126    6    0    1
 -2       122        45       146       195       280       271       268       257       237       272
 -1       127    6    0    1
 -2       146        45       122        49       271       280       268       261        61       260
 -1       128    6    0    1
 -2       122        15        45       195       138        67       280       257       253       237
 -1       129    6    0    1
 -2        45        15       122        49        67       138       280        61        69       260
 -3
    1PSTEP                         1           1           1          
    1PGM                1.000000E+00                                  
    1PGK                1.163246E+11                                  
    1PHID                         -1                                  
    1PSUBC                         0                                  
    1PMODE                         1                                  
  100CL  101 5.42820E+04         280                     2    1MODAL      1
 -4  DISP        4    1
 -5  D1          1    2    1    0
 -5  D2          1    2    2    0
 -5  D3          1    2    3    0
 -5  ALL         1    2    0    0    1ALL
 -1         1 0.00000E+00 0.00000E+00 0.00000E+00
 -1         2 0.00000E+00 0.00000E+00 0.00000E+00
 -1         3 0.00000E+00 0.00000E+00 0.00000E+00
 -1         4 0.00000E+00 0.00000E+00 0.00000E+00
 -1         5 2.60514E+02 5.92792E+01 5.97223E+02
 -1         6-2.14085E+02 5.84400E+01 5.97025E+02
 -1         7 2.14964E+02 5.66945E+01 5.96605E+02
 -1         8-2.60885E+02 5.97948E+01 5.95524E+02
 -1         9 0.00000E+00 0.00000E+00 0.00000E+00
 -1        10 0.00000E+00 0.00000E+00 0.00000E+00
 -1        11 0.00000E+00 0.00000E+00 0.00000E+00
 -1        12 0.00000E+00 0.00000E+00 0.00000E+00
 -1        13 0.00000E+00 0.00000E+00 0.00000E+00
 -1        14 0.00000E+00 0.00000E+00 0.00000E+00
 -1        15 0.00000E+00 0.00000E+00 0.00000E+00
 -1        16 0.00000E+00 0.00000E+00 0.00000E+00
 -1        17 0.00000E+00 0.00000E+00 0.00000E+00
 -1        18 0.00000E+00 0.00000E+00 0.00000E+00
 -1        19 0.00000E+00 0.00000E+00 0.00000E+00
 -1        20 0.00000E+00 0.00000E+00 0.00000E+00
 -1        21 2.41667E+01 5.86981E+01 5.82501E+02
 -1        22 1.32421E+02 5.63542E+01 5.88082E+02
 -1        23-8.45889E+01 6.09314E+01 5.87916E+02
 -1        24 2.48655E+02 5.58457E+01 6.03385E+02
 -1        25 2.56954E+02 5.91671E+01 6.00157E+02
 -1        26 2.36028E+02 5.50390E+01 5.99848E+02
 -1        27-2.51304E+01 5.88101E+01 5.80322E+02
 -1        28 8.42085E+01 6.05529E+01 5.87189E+02
 -1        29-1.33311E+02 5.67236E+01 5.86533E+02
 -1        30-2.50046E+02 5.70805E+01 6.00301E+02
 -1        31-2.36707E+02 5.68138E+01 5.99919E+02
 -1        32-2.57204E+02 5.93049E+01 5.98037E+02
 -1        33 2.23171E+02 5.85255E+01 2.87104E+02
 -1        34 1.49319E+02 5.61942E+01 1.33276E+02
 -1        35 2.56356E+02 5.73286E+01 4.51212E+02
 -1        36-1.85361E+02-2.90329E+00 2.80532E+02
 -1        37-1.23448E+02-3.15876E+01 1.24966E+02
 -1        38-2.10928E+02 3.07329E+01 4.48596E+02
 -1        39 1.86543E+02-2.80939E+00 2.80390E+02
 -1        40 1.22994E+02-3.09039E+01 1.23300E+02
 -1        41 2.11869E+02 3.00255E+01 4.47648E+02
 -1        42-2.25671E+02 5.75416E+01 2.88392E+02
 -1        43-1.50363E+02 5.65410E+01 1.32200E+02
 -1        44-2.56804E+02 5.82528E+01 4.50503E+02
 -1        45 0.00000E+00 0.00000E+00 0.00000E+00
 -1        46 0.00000E+00 0.00000E+00 0.00000E+00
 -1        47 0.00000E+00 0.00000E+00 0.00000E+00
 -1        48 0.00000E+00 0.00000E+00 0.00000E+00
 -1        49 0.00000E+00 0.00000E+00 0.00000E+00
 -1        50 0.00000E+00 0.00000E+00 0.00000E+00
 -1        51 0.00000E+00 0.00000E+00 0.00000E+00
 -1        52 0.00000E+00 0.00000E+00 0.00000E+00
 -1        53 0.00000E+00 0.00000E+00 0.00000E+00
 -1        54 0.00000E+00 0.00000E+00 0.00000E+00
 -1        55 0.00000E+00 0.00000E+00 0.00000E+00
 -1        56 0.00000E+00 0.00000E+00 0.00000E+00
 -1        57 0.00000E+00 0.00000E+00 0.00000E+00
 -1        58 0.00000E+00 0.00000E+00 0.00000E+00
 -1        59 0.00000E+00 0.00000E+00 0.00000E+00
 -1        60 0.00000E+00 0.00000E+00 0.00000E+00
 -1        61 0.00000E+00 0.00000E+00 0.00000E+00
 -1        62 0.00000E+00 0.00000E+00 0.00000E+00
 -1        63 0.00000E+00 0.00000E+00 0.00000E+00
 -1        64 0.00000E+00 0.00000E+00 0.00000E+00
 -1        65 0.00000E+00 0.00000E+00 0.00000E+00
 -1        66 0.00000E+00 0.00000E+00 0.00000E+00
 -1        67 0.00000E+00 0.00000E+00 0.00000E+00
 -1        68 0.00000E+00 0.00000E+00 0.00000E+00
 -1        69 0.00000E+00 0.00000E+00 0.00000E+00
 -1        70 1.93528E+00 5.83987E+01 5.91259E+02
 -1        71-1.02687E+02 5.82742E+01 5.92498E+02
 -1        72-1.25382E+02 5.75798E+01 5.92709E+02
 -1        73 1.02362E+02 5.76941E+01 5.91873E+02
 -1        74 1.24387E+02 5.78677E+01 5.91972E+02
 -1        75-1.86632E+02 5.77119E+01 5.97849E+02
 -1        76-1.92053E+02 5.84642E+01 5.94641E+02
 -1        77-7.23378E+01 5.79726E+01 5.84402E+02
 -1        78-1.16376E+02 5.81995E+01 5.96194E+02
 -1        79-6.07201E+01 5.74532E+01 5.91594E+02
 -1        80-1.12834E+01 5.85572E+01 5.86222E+02
 -1        81 1.74580E+02 5.61414E+01 5.99165E+02
 -1        82 1.57786E+02 5.78290E+01 5.95310E+02
 -1        83 3.58130E+01 5.89953E+01 5.84470E+02
 -1        84 5.01775E+01 5.77903E+01 5.90060E+02
 -1        85 1.14442E+02 5.75611E+01 5.96491E+02
 -1        86 1.83792E+02 5.76287E+01 5.99555E+02
 -1        87 1.91558E+02 5.80542E+01 5.95694E+02
 -1        88 7.16935E+01 5.80737E+01 5.85492E+02
 -1        89 6.18506E+01 5.78762E+01 5.90129E+02
 -1        90 1.16386E+01 5.89177E+01 5.86565E+02
 -1        91-1.76068E+02 5.72639E+01 5.98609E+02
 -1        92-1.57817E+02 5.89922E+01 5.95730E+02
 -1        93-4.92752E+01 5.80209E+01 5.90742E+02
 -1        94-3.63327E+01 5.88466E+01 5.85107E+02
 -1        95 2.05303E+01 2.99705E+01 2.65803E+02
 -1        96-7.77433E+01 3.83871E+01 4.43232E+02
 -1        97 1.24217E+02 5.13760E+01 4.45056E+02
 -1        98 5.86349E+01 3.45009E+01 1.08870E+02
 -1        99-3.28256E+01-7.71519E+00 1.05701E+02
 -1       100 4.66247E+01 3.17305E+01 4.56738E+01
 -1       101 1.75667E+01 1.55537E+01 4.19418E+01
 -1       102 1.20330E+01 1.36841E+01 1.03496E+02
 -1       103 4.71527E+01 3.27141E+01 1.81730E+02
 -1       104-1.23556E+01 9.99992E+00 1.80145E+02
 -1       105-4.06923E+00-2.11876E+00 4.21988E+01
 -1       106-3.26959E+01-1.81546E+01 4.23149E+01
 -1       107-2.14504E+01 3.22594E+01 3.56140E+02
 -1       108-1.29548E+02 1.98530E+01 3.62479E+02
 -1       109-5.92479E+01 1.21182E+01 2.69611E+02
 -1       110 2.42424E+01 4.51639E+01 4.39956E+02
 -1       111-2.70701E+01 5.03489E+01 5.17651E+02
 -1       112-1.43805E+02 4.76496E+01 5.24238E+02
 -1       113 6.53374E+01 4.36001E+01 3.57280E+02
 -1       114 7.45662E+01 5.32694E+01 5.18321E+02
 -1       115 1.02383E+02 4.55919E+01 2.72195E+02
 -1       116 1.74385E+02 5.36169E+01 3.66020E+02
 -1       117 1.90897E+02 5.61321E+01 5.25419E+02
 -1       118 1.30472E+02 4.98029E+01 1.97240E+02
 -1       119-9.65980E+01-9.47012E+00 1.91430E+02
 -1       120-2.07604E+01 2.82403E+01 2.66379E+02
 -1       121 7.69244E+01 3.84522E+01 4.42317E+02
 -1       122 3.26202E+01-7.89438E+00 1.05064E+02
 -1       123-1.25120E+02 5.16756E+01 4.44005E+02
 -1       124-6.00683E+01 3.66178E+01 1.08089E+02
 -1       125-1.75785E+02 5.44900E+01 3.65718E+02
 -1       126-6.63262E+01 4.19758E+01 3.57105E+02
 -1       127-1.02528E+02 4.53534E+01 2.73331E+02
 -1       128-1.91643E+02 5.64867E+01 5.24127E+02
 -1       129-1.29993E+02 5.10846E+01 1.96372E+02
 -1       130-4.69255E+01 3.13807E+01 1.80966E+02
 -1       131-4.71542E+01 3.18146E+01 4.50426E+01
 -1       132 1.30626E+02 1.93270E+01 3.61602E+02
 -1       133 5.88889E+01 1.28944E+01 2.69561E+02
 -1       134 2.04631E+01 3.23075E+01 3.55762E+02
 -1       135 1.44093E+02 4.69899E+01 5.23481E+02
 -1       136 2.56221E+01 5.05200E+01 5.16487E+02
 -1       137-2.42135E+01 4.47673E+01 4.40448E+02
 -1       138 4.40943E+00-2.27682E+00 4.25151E+01
 -1       139-1.32747E+01 1.44536E+01 1.03332E+02
 -1       140 1.25358E+01 9.90385E+00 1.79007E+02
 -1       141 3.24087E+01-1.82718E+01 4.19588E+01
 -1       142 9.53241E+01-1.07393E+01 1.89736E+02
 -1       143-7.53950E+01 5.34450E+01 5.16915E+02
 -1       144-1.81929E+01 1.75804E+01 4.27246E+01
 -1       145 2.10827E+02 2.51740E+01 3.01507E+02
 -1       146 1.25982E+02-7.22575E+00 1.36885E+02
 -1       147 2.31542E+02 3.54402E+01 4.55599E+02
 -1       148 2.51964E+02 5.11547E+01 4.57027E+02
 -1       149 1.40549E+02 2.57269E+01 1.41144E+02
 -1       150 7.52298E+01 6.93169E+00 7.57596E+01
 -1       151 7.71702E+01 2.09878E+01 7.16048E+01
 -1       152 1.19650E+02 1.11263E+01 1.37896E+02
 -1       153 6.75282E+01-3.09726E+00 7.15344E+01
 -1       154 1.72011E+02 8.16390E+00 2.16812E+02
 -1       155 1.81769E+02 2.58702E+01 2.18301E+02
 -1       156 6.81119E+01-1.25230E+01 6.54892E+01
 -1       157 1.89949E+02 4.88610E+01 2.13117E+02
 -1       158 1.66599E+02-1.11507E+01 2.07497E+02
 -1       159 2.03120E+02 9.95236E+00 2.93504E+02
 -1       160 2.14331E+02 1.81707E+01 3.71496E+02
 -1       161 2.26122E+02 2.90119E+01 3.79411E+02
 -1       162 2.26408E+02 4.47113E+01 5.27810E+02
 -1       163 2.42134E+02 4.75120E+01 5.32300E+02
 -1       164 2.42406E+02 4.26752E+01 4.57898E+02
 -1       165 2.52181E+02 5.25676E+01 5.32928E+02
 -1       166 2.35618E+02 4.03579E+01 3.79684E+02
 -1       167 2.42776E+02 5.26955E+01 3.74872E+02
 -1       168 2.17721E+02 4.29148E+01 2.98640E+02
 -1       169 2.58724E+02 5.71893E+01 5.29229E+02
 -1       170-2.10680E+02 2.70546E+01 3.02365E+02
 -1       171-2.51266E+02 5.24678E+01 4.57524E+02
 -1       172-2.33042E+02 3.59502E+01 4.56960E+02
 -1       173-1.42083E+02 2.83981E+01 1.43811E+02
 -1       174-1.31948E+02-5.34353E+00 1.36953E+02
 -1       175-1.90746E+02 4.88541E+01 2.14696E+02
 -1       176-7.76534E+01 2.12030E+01 7.04894E+01
 -1       177-1.82346E+02 2.72235E+01 2.20000E+02
 -1       178-2.19516E+02 4.17774E+01 2.98006E+02
 -1       179-2.43806E+02 5.34907E+01 3.75825E+02
 -1       180-2.58900E+02 5.80591E+01 5.28221E+02
 -1       181-2.35297E+02 4.19551E+01 3.82600E+02
 -1       182-2.13912E+02 1.83486E+01 3.71299E+02
 -1       183-2.26869E+02 2.97135E+01 3.80741E+02
 -1       184-2.02515E+02 1.07414E+01 2.95130E+02
 -1       185-2.26410E+02 4.59455E+01 5.28672E+02
 -1       186-2.43330E+02 4.84252E+01 5.31335E+02
 -1       187-2.40674E+02 4.31953E+01 4.59997E+02
 -1       188-7.56550E+01 9.40298E+00 7.41915E+01
 -1       189-1.24817E+02 7.62987E+00 1.41321E+02
 -1       190-1.68716E+02-1.12657E+01 2.06923E+02
 -1       191-1.76526E+02 9.30453E+00 2.15857E+02
 -1       192-6.94459E+01-1.27996E+01 6.69719E+01
 -1       193-7.42896E+01-2.35429E-01 7.52398E+01
 -1       194-2.52229E+02 5.36200E+01 5.31081E+02
 -1       195-3.03571E+01 2.18342E+01 1.93209E+02
 -1       196 4.79573E+01 3.69229E+01 3.68161E+02
 -1       197 2.53592E+01 1.56034E+01 4.92187E+01
 -1       198 2.70699E+01 1.92781E+01 1.11713E+02
 -1       199 6.31884E+01 3.29709E+01 2.33385E+02
 -1       200 3.17920E+01 3.51610E+01 3.19135E+02
 -1       201 4.27758E+01 2.04683E+01 1.55357E+02
 -1       202 1.49791E+02 2.68736E+01 3.71281E+02
 -1       203 1.50998E+02 3.57136E+01 4.49695E+02
 -1       204 6.68846E+01 3.66121E+01 4.08621E+02
 -1       205 1.32033E+02 3.74960E+01 4.13657E+02
 -1       206 1.23066E+02 3.30371E+01 3.31895E+02
 -1       207 4.22412E+01 5.11391E+01 5.22319E+02
 -1       208 9.13571E+01 4.93508E+01 5.22676E+02
 -1       209-1.76227E+02 4.68381E+01 4.56126E+02
 -1       210-1.86686E+02 5.42872E+01 5.27919E+02
 -1       211-1.08360E+02 5.04540E+01 5.27277E+02
 -1       212-1.66084E+02 4.88700E+01 5.28882E+02
 -1       213-1.07760E+02 2.71998E+00 2.02414E+02
 -1       214-7.34389E+01-1.10985E+01 1.20903E+02
 -1       215 4.03167E+01 1.42076E+01 5.77448E+01
 -1       216 7.97264E+01 1.64480E+01 1.28051E+02
 -1       217-6.50021E+01 5.19211E+01 5.21946E+02
 -1       218-1.26796E+02 5.41140E+01 5.22695E+02
 -1       219-1.13760E+01 4.42569E+01 4.44937E+02
 -1       220 1.32221E+01 3.03385E+01 3.20866E+02
 -1       221 2.80109E+01 4.78704E+01 4.87643E+02
 -1       222-1.09124E+02 4.33531E+01 4.52476E+02
 -1       223-6.76613E+01 3.72269E+01 4.08779E+02
 -1       224-6.52723E+01 3.10890E+01 3.26006E+02
 -1       225-7.74729E+01 1.88628E+01 2.80737E+02
 -1       226-3.55346E+01 9.36715E+00 1.54349E+02
 -1       227-1.13034E+01 2.17329E+01 2.34329E+02
 -1       228-1.02412E+02 2.63947E+01 2.44830E+02
 -1       229 4.47924E+01 1.15260E+01 1.20236E+02
 -1       230 1.39171E+01 1.62303E+01 1.54235E+02
 -1       231-7.77086E+01 3.93548E+01 3.22943E+02
 -1       232-2.77870E+01 3.97930E+01 4.07074E+02
 -1       233-2.63868E+01 2.66269E+01 2.31402E+02
 -1       234 4.78999E+00 1.12824E+01 1.15128E+02
 -1       235 7.72499E+01 1.90696E+01 2.80819E+02
 -1       236 5.24688E+01 2.02732E+01 2.37981E+02
 -1       237-5.92475E+00 8.31600E+00 8.14222E+01
 -1       238-3.92234E-01 2.71101E+01 2.78776E+02
 -1       239 1.85479E+02 5.41667E+01 5.29476E+02
 -1       240 1.43535E+02 4.78895E+01 4.93384E+02
 -1       241 8.75107E+01 4.91866E+01 4.89321E+02
 -1       242 1.39704E+02 4.44374E+01 4.14185E+02
 -1       243 1.25943E+02 5.36902E+01 5.23646E+02
 -1       244 3.95537E+01 4.88891E+01 4.84190E+02
 -1       245 8.62559E+01 4.51298E+01 4.07249E+02
 -1       246 1.83111E+02 5.21208E+01 4.51693E+02
 -1       247 1.30085E+02 4.31174E+01 3.26065E+02
 -1       248-8.98527E+01 3.58843E+01 1.24745E+02
 -1       249-4.60759E+01 2.60797E+01 1.51126E+02
 -1       250-7.80632E+01 2.34317E+01 1.61982E+02
 -1       251-1.10421E+02 3.84245E+01 2.42548E+02
 -1       252-2.50989E+01 1.51902E+01 4.90256E+01
 -1       253-1.17935E+01 1.13000E+01 7.83337E+01
 -1       254-2.43789E+01 1.30040E+01 8.08719E+01
 -1       255-3.95456E+01 1.34474E+01 5.33898E+01
 -1       256-4.22778E+01 1.13099E+01 8.39238E+01
 -1       257 2.97307E+00 1.25089E+01 1.47757E+02
 -1       258-9.79303E+00 3.88077E+01 4.04638E+02
 -1       259-2.31703E+01 6.20436E+00 8.37319E+01
 -1       260 1.76220E+01-4.80478E+00 4.64188E+01
 -1       261 3.78777E+01-6.05377E+00 5.24981E+01
 -1       262 1.64926E+02 4.80229E+01 5.28491E+02
 -1       263-1.50458E+02 3.62548E+01 4.50185E+02
 -1       264-3.68263E+01-4.76598E+00 5.62212E+01
 -1       265 8.87679E+01 3.46683E+01 1.25287E+02
 -1       266-1.76245E+01-4.17707E+00 4.74049E+01
 -1       267-1.83463E+02 5.29524E+01 4.51659E+02
 -1       268 7.23858E+01-1.12256E+01 1.19252E+02
 -1       269-9.16485E+01 4.96510E+01 5.23209E+02
 -1       270 1.07020E+02 4.97829E+01 5.27259E+02
 -1       271 2.04204E+01 3.05457E+00 5.05146E+01
 -1       272 3.55951E+01 9.00133E+00 1.53716E+02
 -1       273 1.19660E+02 3.40312E+01 2.05465E+02
 -1       274-8.04351E+01 2.78610E+01 3.63634E+02
 -1       275-4.16060E+01 5.10069E+01 5.22523E+02
 -1       276-8.09630E+00 1.70633E+00 4.98450E+01
 -1       277-1.67584E+02 4.47322E+01 3.74923E+02
 -1       278 5.48180E+01 4.52128E+00 1.90005E+02
 -1       279-7.72941E+01 5.46978E+00 1.26988E+02
 -1       280 6.48155E+00 2.24494E+00 4.77937E+01
 -3
    1PSTEP                         2           1           1          
    1PGM                1.000000E+00                                  
    1PGK                1.163246E+11                                  
    1PHID                         -1                                  
    1PSUBC                         0                                  
    1PMODE                         1                                  
  100CL  101 5.42820E+04         280                     2    1MODAL      1
 -4  STRESS      6    1
 -5  SXX         1    4    1    1
 -5  SYY         1    4    2    2
 -5  SZZ         1    4    3    3
 -5  SXY         1    4    1    2
 -5  SYZ         1    4    2    3
 -5  SZX         1    4    3    1
 -1         1 1.55254E+07 5.17092E+06 4.51094E+06 2.38697E+06 6.49197E+05 2.86403E+06
 -1         2-1.27837E+07-4.39453E+06-3.55757E+06-1.87246E+06 5.20462E+05 2.47084E+06
 -1         3 1.27504E+07 4.34061E+06 3.63163E+06-1.85358E+06-5.05925E+05 2.36721E+06
 -1         4-1.56002E+07-5.16148E+06-4.60542E+06 2.35017E+06-5.72446E+05 2.74008E+06
 -1         5-3.07084E+05-6.75439E+04-4.06969E+05-3.70549E+04 2.73538E+04-3.23310E+05
 -1         6 2.49707E+05 2.46030E+04 4.18977E+05-1.81647E+04 5.06172E+04-3.11524E+05
 -1         7-2.64180E+05 1.68759E+04-3.71687E+05-8.24193E+03 1.15977E+03-3.16410E+05
 -1         8 3.26666E+05 8.45488E+04 3.85616E+05-6.54784E+04-1.56871E+04-3.14274E+05
 -1         9 1.46030E+06 4.19668E+05 6.19959E+05 3.35958E+05-6.81010E+04 2.11421E+06
 -1        10 7.51126E+06 3.21912E+06 3.21912E+06 1.84822E+06 9.02172E-01 2.04186E+06
 -1        11-4.38355E+06-1.87867E+06-1.87867E+06-1.01020E+06 9.67014E-01 1.94849E+06
 -1        12 1.49230E+07 6.12863E+06 5.82410E+06 2.27160E+04-2.55189E+04 4.14887E+06
 -1        13 1.76885E+07 7.58079E+06 7.58080E+06 9.26513E+05-7.83511E-01 4.72566E+06
 -1        14 1.56474E+07 6.70602E+06 6.70602E+06-7.38914E+05 4.26670E-01 4.22034E+06
 -1        15-1.36953E+06-3.60969E+05-5.31505E+05 3.86865E+05 1.31044E+05 2.20586E+06
 -1        16 4.41709E+06 1.89304E+06 1.89304E+06-1.02162E+06-1.28572E+00 1.96562E+06
 -1        17-7.60580E+06-3.25964E+06-3.25963E+06 1.91298E+06-6.65494E-01 2.07522E+06
 -1        18-1.34507E+07-5.18355E+06-4.20718E+06 2.52939E+05-1.02189E+05 3.31425E+06
 -1        19-1.67486E+07-7.17797E+06-7.17797E+06-6.37734E+05-8.02768E-01 4.53754E+06
 -1        20-1.77189E+07-7.59384E+06-7.59385E+06 1.00965E+06-1.49893E-03 4.47847E+06
 -1        21-1.27047E+05-7.19118E+03-6.51938E+04 1.15080E+04 1.46277E+05 6.53944E+05
 -1        22-1.64684E+05-2.81391E+04-6.46712E+05-2.44692E+04 1.25662E+05 1.67024E+05
 -1        23 1.81342E+05 2.98684E+03 6.36245E+05 4.14538E+04 1.06186E+05 1.82270E+05
 -1        24-2.18261E+05-4.04835E+05-3.96146E+05 7.08148E+04 2.42465E+04-4.04171E+05
 -1        25-3.21592E+05-3.43950E+05-3.67110E+05 4.94802E+04 2.10114E+04-2.72273E+05
 -1        26-2.81509E+05-1.52267E+05-3.39225E+05 1.52532E+04 1.56402E+04-1.97735E+05
 -1        27 4.24517E+03 1.32951E+04-1.95080E+04-2.11736E+04-1.97932E+05 6.02915E+05
 -1        28-1.52587E+05-2.48553E+04-7.04561E+05 2.42266E+04-1.16535E+05 1.59242E+05
 -1        29 1.60746E+05 4.56898E+04 6.70021E+05-5.13537E+04-1.19886E+05 1.54876E+05
 -1        30 1.24928E+05 2.62723E+05 2.59578E+05 1.01506E+05-5.52193E+04-2.04255E+05
 -1        31 1.79006E+05 7.81648E+04 2.62818E+05 1.89648E+04-3.72909E+04-1.52282E+05
 -1        32 2.62115E+05 2.76852E+05 2.98826E+05 2.26938E+04-3.48765E+03-1.53243E+05
 -1        33 3.85863E+06-2.65984E+05-3.50955E+05-3.37675E+05-7.80973E+04 5.70667E+05
 -1        34 9.20943E+06 6.39292E+05 3.02972E+05 3.91651E+05 1.57275E+05 8.88820E+05
 -1        35 1.47024E+06 1.69449E+04-9.51905E+04-9.66879E+04 3.53415E+04 2.10797E+05
 -1        36-2.94961E+06 3.20238E+05 2.69484E+05 5.03693E+05-1.15391E+05 4.79944E+05
 -1        37-7.66174E+06-6.14401E+05-2.10153E+05-1.92344E+05 1.09082E+05 8.13885E+05
 -1        38-1.12334E+06-3.00498E+04 1.15481E+05 1.43039E+05-1.14780E+04 1.73241E+05
 -1        39 3.24085E+06-2.37066E+05-1.83916E+05 4.85191E+05-3.68378E+04 4.92852E+05
 -1        40 7.66482E+06 5.04138E+05 1.73141E+05-1.71799E+05-2.83327E+05 7.31698E+05
 -1        41 1.10225E+06 2.28325E+04-1.38109E+05 1.32582E+05-6.25167E+04 1.88584E+05
 -1        42-3.95868E+06 3.48151E+05 3.31363E+05-3.69911E+05-3.10295E+04 4.50507E+05
 -1        43-9.19798E+06-3.99769E+05-1.70987E+05 3.05396E+05-1.62823E+05 7.64926E+05
 -1        44-1.35056E+06 1.24489E+04 1.80875E+05-4.96999E+04-8.32954E+04 1.97407E+05
 -1        45-4.03078E+05-1.24689E+05-1.27917E+05 2.80411E+05-1.39170E+05 2.93124E+06
 -1        46-4.14164E+06-1.48415E+06-1.67601E+06-3.03603E+05 4.69975E+04 3.06114E+06
 -1        47 4.83172E+06 1.78650E+06 2.04335E+06 8.69965E+05 1.05069E+05 3.17083E+06
 -1        48-4.03247E+06-1.75755E+06-2.06315E+06 7.15618E+05 5.20323E+04 2.75141E+06
 -1        49 3.51489E+06 1.62237E+06 1.64123E+06-3.72320E+05 6.75281E+04 2.42815E+06
 -1        50-7.66168E+06-3.02178E+06-2.72912E+06-1.09224E+06 2.19768E+05 2.75247E+06
 -1        51-1.13740E+06-4.87461E+05-4.87459E+05-1.50043E+05 5.08404E-01 2.26172E+06
 -1        52 6.62897E+05 2.19610E+05 6.91393E+04 2.75413E+05-3.17014E+04 2.58221E+06
 -1        53-1.95854E+06-7.89961E+05-7.82949E+05 1.19040E+05 2.84977E+04 2.77530E+06
 -1        54 3.03231E+06 1.08919E+06 1.47263E+06 6.70643E+05-1.00450E+04 2.45831E+06
 -1        55 9.27810E+06 3.58813E+06 3.37134E+06 1.65940E+06 2.67401E+05 3.00674E+06
 -1        56 2.46133E+06 1.02703E+06 9.74626E+05 4.43477E+05 2.90966E+04 3.03674E+06
 -1        57 9.80808E+06 4.06383E+06 3.87703E+06 5.12258E+05-1.25489E+05 3.68892E+06
 -1        58 5.98476E+06 2.47920E+06 2.53920E+06 1.86216E+05-1.69874E+03 3.30223E+06
 -1        59 9.13539E+06 3.91517E+06 3.91518E+06-3.40807E+05 1.13162E+00 3.42089E+06
 -1        60 7.98715E+06 3.18057E+06 2.98501E+06-1.14418E+06-1.83228E+05 2.53221E+06
 -1        61 4.55138E+05 2.80244E+05 4.10222E+05 1.89637E+05 8.08593E+04 2.47421E+06
 -1        62-9.02152E+06-3.45230E+06-3.22943E+06 1.46948E+05-2.82969E+05 3.37794E+06
 -1        63-4.74187E+06-2.03223E+06-2.03223E+06 3.57281E+05-2.25598E-02 2.82013E+06
 -1        64-2.91240E+06-1.09596E+06-1.33142E+06 7.17303E+05 1.85698E+04 2.46162E+06
 -1        65-9.20670E+06-3.59909E+06-3.52308E+06 1.55261E+06-2.07124E+05 2.79027E+06
 -1        66-2.17178E+06-9.30765E+05-9.30764E+05 4.26783E+05-2.27036E-01 2.69493E+06
 -1        67-5.99263E+05-1.99802E+05-6.67454E+04 3.08569E+05 2.89832E+04 2.53724E+06
 -1        68-8.19733E+06-3.41523E+06-3.15689E+06 4.20457E+05 1.22281E+05 2.96980E+06
 -1        69 1.23227E+06 5.28118E+05 5.28116E+05-1.92885E+05-1.00501E+00 2.24008E+06
 -1        70 2.04621E+05 2.27224E+04 1.98707E+04 2.50397E+04-5.27100E+04 5.67756E+05
 -1        71 1.67872E+04 1.35681E+05 9.31731E+05-2.80612E+04 1.24430E+05 2.25501E+04
 -1        72 1.61358E+05 2.77955E+05 8.32022E+05 5.16819E+04-1.06058E+05 2.32040E+05
 -1        73-2.42277E+04-1.16067E+05-9.64423E+05-3.23476E+03-7.30864E+04 4.86555E+04
 -1        74-4.16410E+03-2.54446E+05-9.93941E+05-1.08615E+04 1.31456E+05 9.17258E+04
 -1        75 1.29801E+05 2.65136E+05 5.31252E+05 1.11113E+05-6.45209E+04 5.26169E+04
 -1        76 7.76530E+04 1.88884E+05 6.59736E+05 3.02572E+02-5.57659E+04-5.06103E+04
 -1        77 1.30205E+05 2.22544E+05 6.50340E+05-2.80632E+04-2.14022E+05 2.95871E+05
 -1        78 2.72755E+05 1.89470E+05 5.00353E+05 4.35479E+03-4.75337E+04 2.31779E+05
 -1        79 3.75230E+05 2.27536E+05 6.07790E+05 4.26355E+04-1.18900E+05 4.00584E+05
 -1        80 5.35384E+04 4.44420E+04 3.97555E+04-1.82845E+04-2.32991E+05 4.62039E+05
 -1        81-2.82000E+04-2.32592E+05-7.76055E+05 2.46377E+04-3.22902E+04-4.75470E+04
 -1        82-7.64435E+04-4.56511E+04-7.41224E+05-1.17573E+04-1.78601E+04-1.10449E+05
 -1        83-9.43640E+04-6.35778E+04-6.51214E+05 2.90362E+04-1.50425E+05 2.69600E+05
 -1        84-1.04880E+05-1.34366E+05-5.64266E+05-2.69533E+04-1.23307E+05 2.54007E+05
 -1        85-4.82766E+04-2.59532E+05-5.77397E+05 5.32189E+04 6.73808E+02 1.73254E+05
 -1        86-3.28426E+04-3.62918E+05-7.45341E+05 2.32426E+04 1.22596E+05-1.64002E+05
 -1        87-5.22277E+04-1.64407E+05-7.91012E+05-2.08471E+04 4.01767E+04-7.49989E+04
 -1        88-2.03743E+05-1.84134E+05-6.58724E+05-4.37530E+03 1.37053E+05 3.61061E+05
 -1        89-5.43423E+04-2.04471E+05-6.47992E+05 3.79205E+04 2.11367E+05 3.54366E+05
 -1        90 1.08980E+04 3.00930E+04 1.29334E+05 3.28731E+04 1.56564E+05 4.63363E+05
 -1        91-4.19430E+04 1.28442E+05 5.71237E+05 3.03757E+03 5.31711E+03-3.24072E+04
 -1        92 6.59731E+04 7.47202E+04 7.52580E+05-3.23017E+04 7.33138E+04-1.13804E+05
 -1        93 4.03621E+04 1.48435E+05 5.80711E+05-1.95514E+04 1.45047E+05 1.88646E+05
 -1        94 1.66427E+05 9.97754E+04 6.17917E+05 3.08091E+04 1.39724E+05 2.81420E+05
 -1        95 3.57520E+05-5.84466E+04-4.21342E+03 9.52590E+04-1.61176E+05 3.60278E+06
 -1        96-9.49269E+05-9.15683E+04 1.73145E+05 1.00530E+05 1.65914E+04 1.53708E+06
 -1        97 1.12763E+06 1.50205E+04-2.17056E+05-7.64347E+04 3.78190E+04 1.46659E+06
 -1        98 4.43742E+06-3.31913E+05 1.83945E+04-1.13211E+05-3.31950E+05 2.77237E+06
 -1        99-2.79311E+06 1.23168E+05-8.55744E+04 1.01368E+05-2.43989E+05 2.77700E+06
 -1       100 9.24094E+06 1.64781E+06 1.69817E+06 1.04206E+06 2.45756E+05 2.58907E+06
 -1       101 2.43071E+06-5.09276E+05 4.87663E+05 1.38675E+05-1.21996E+05 2.44892E+06
 -1       102 8.34919E+05-6.95228E+04 1.15250E+05 2.46877E+05-1.13123E+05 2.98007E+06
 -1       103 2.11282E+06-2.85342E+05-2.86178E+05 3.20933E+04-2.03265E+05 3.09859E+06
 -1       104-7.04230E+05 1.23046E+05 2.63074E+05 6.92802E+04-2.06271E+05 3.13731E+06
 -1       105-4.32715E+05 3.88382E+05-1.21743E+04 1.31558E+05-1.73557E+05 2.45169E+06
 -1       106-6.94689E+06-1.33029E+06-1.21985E+06-7.29069E+05 1.74432E+05 2.37057E+06
 -1       107-6.56929E+05-7.13434E+04-3.28061E+04 3.57490E+04-3.76558E+04 2.60478E+06
 -1       108-1.93771E+06-6.21389E+04 1.50921E+05 1.18269E+05-7.16431E+04 1.22813E+06
 -1       109-1.83482E+06-6.79147E+04 1.83189E+04 1.32264E+05-8.36614E+04 2.31859E+06
 -1       110 1.48539E+05 2.90213E+04-1.87325E+04 5.40241E+04 3.07658E+04 2.18168E+06
 -1       111-4.32306E+05 8.82274E+03 1.94415E+05 5.40209E+04 8.15280E+04 1.08341E+06
 -1       112-4.29320E+05-5.99254E+04 2.49729E+05 6.77558E+04 5.00003E+04 5.71456E+05
 -1       113 1.06984E+06 1.20655E+05 8.16015E+04 1.02126E+04-4.27514E+04 2.60724E+06
 -1       114 4.33503E+05-1.89013E+04-3.21189E+05-6.88901E+03 8.72331E+04 1.11600E+06
 -1       115 2.30173E+06 1.45629E+04-1.57165E+05-1.11196E+05-5.77216E+04 2.30514E+06
 -1       116 2.38794E+06-6.20774E+04-2.29163E+05-9.63070E+04-5.95919E+03 1.21977E+06
 -1       117 4.39199E+05 6.18172E+03-2.88574E+05-7.71405E+04 4.34095E+04 5.27446E+05
 -1       118 4.32496E+06-1.96248E+05-2.67693E+05-3.61433E+05-2.52944E+05 1.55913E+06
 -1       119-3.02365E+06 3.21997E+05 2.75622E+05 5.31598E+05-2.72788E+05 1.50018E+06
 -1       120-4.92631E+05-1.42779E+04 6.36313E+04 1.18085E+05 1.22135E+05 3.64399E+06
 -1       121 8.09054E+05 9.50571E+04-2.41107E+05 5.76380E+04-2.02119E+04 1.44231E+06
 -1       122 2.47318E+06-1.79111E+05 1.60618E+05 1.70365E+05 3.38771E+05 2.74272E+06
 -1       123-1.12296E+06-1.82897E+04 2.86725E+05-8.10914E+04-6.45927E+02 1.42386E+06
 -1       124-4.21236E+06 4.76033E+05-1.08972E+05-1.09169E+05 2.77023E+05 2.80513E+06
 -1       125-2.45138E+06 9.69146E+04 1.97175E+05-1.31203E+05-8.22116E+04 1.06493E+06
 -1       126-1.04616E+06-1.44672E+05-1.69944E+04 4.66929E+04 9.70542E+04 2.50718E+06
 -1       127-2.55558E+06 6.05420E+04 1.31996E+05-1.58861E+05-6.02039E+04 2.30987E+06
 -1       128-4.42268E+05-3.24645E+04 2.88309E+05-9.96050E+04-2.88561E+04 5.18698E+05
 -1       129-4.15739E+06 4.54618E+05 3.74959E+05-4.38660E+05 1.80258E+05 1.57558E+06
 -1       130-1.78796E+06 1.93307E+05 3.68061E+05 1.52752E+04 2.11821E+05 3.23407E+06
 -1       131-9.28611E+06-1.52077E+06-1.80682E+06 1.06897E+06-2.22598E+05 2.53842E+06
 -1       132 2.04850E+06 9.52469E+04-9.80426E+04 1.54611E+05-1.90606E+04 1.10634E+06
 -1       133 1.35590E+06 1.07440E+04-1.50454E+05 1.72908E+05 2.64906E+03 2.29988E+06
 -1       134 5.17071E+05 1.99738E+05 9.92388E+04 7.39504E+04 7.29995E+04 2.52762E+06
 -1       135 3.93068E+05 8.50022E+04-2.46616E+05 4.11126E+04-3.61878E+04 5.19767E+05
 -1       136 4.48260E+05 3.73264E+04-2.33050E+05 3.65560E+04-1.06533E+05 1.05681E+06
 -1       137-1.66778E+05 1.99190E+03 2.47395E+04 6.56371E+04 3.26630E+04 2.15959E+06
 -1       138 5.20946E+05-2.10740E+05 1.69286E+05 1.77199E+05 2.76577E+05 2.46349E+06
 -1       139-9.15054E+05-4.62616E+04-2.35900E+05 1.47780E+05 1.87271E+05 2.99905E+06
 -1       140 5.45027E+05-1.03837E+05-2.54865E+05 9.92152E+04 2.15125E+05 3.21893E+06
 -1       141 6.89306E+06 1.26889E+06 1.31236E+06-7.70441E+05-1.12587E+05 2.32008E+06
 -1       142 2.90203E+06-6.91311E+05-3.44983E+05 5.08046E+05 2.12623E+05 1.50654E+06
 -1       143-5.32883E+05-2.50634E+04 2.08318E+05-3.66993E+04-6.58341E+04 1.03616E+06
 -1       144-2.78344E+06 1.63190E+05-7.23870E+05 2.73102E+05 1.46148E+05 2.45947E+06
 -1       145 4.90288E+06-7.83042E+04-4.60148E+05 4.11309E+05 1.34735E+04 6.31739E+05
 -1       146 8.57639E+06 7.52292E+05 1.96576E+04 5.20206E+04-1.11662E+04 1.33821E+06
 -1       147 9.46817E+05-2.57081E+05-1.25652E+05 2.52909E+05 5.10053E+03 1.83849E+05
 -1       148 1.10259E+06-2.57636E+05 2.53512E+04 2.79434E+04 2.09620E+04 5.75040E+04
 -1       149 8.94160E+06 2.52175E+05-7.67733E+05 4.54061E+05 2.80490E+04 6.08823E+04
 -1       150 1.16205E+07 2.95325E+06 1.19761E+06 1.14388E+05-7.78335E+03 1.74794E+06
 -1       151 1.26628E+07 2.52451E+06 1.54873E+06 1.38465E+06 3.73164E+05 1.58855E+06
 -1       152 9.68744E+06 2.52849E+06 1.65298E+06 2.29730E+05 1.29741E+04 1.98934E+06
 -1       153 1.19913E+07 3.35928E+06 2.63005E+06 1.28130E+05-2.88920E+04 2.82243E+06
 -1       154 6.86253E+06 4.94500E+05-3.20808E+04 3.74478E+05 1.07397E+05 1.12909E+06
 -1       155 6.82134E+06 1.59452E+04-8.94644E+05 9.80963E+04 5.59374E+04-1.09184E+05
 -1       156 1.08357E+07 2.33143E+06 1.04333E+06-7.94471E+05-2.81433E+05 1.64483E+06
 -1       157 5.76139E+06-5.15208E+05-3.07819E+05-4.95459E+04-2.53078E+05 1.69677E+05
 -1       158 5.86149E+06-3.03242E+04-1.60223E+04 4.25636E+05 6.90042E+04 5.71203E+05
 -1       159 3.65271E+06-6.21558E+04-1.28808E+05 5.00553E+05-4.17155E+04 5.53662E+05
 -1       160 1.99847E+06-1.61615E+05-1.05564E+05 3.11212E+05-3.51062E+04 3.15032E+05
 -1       161 2.15404E+06-3.34302E+05-3.49234E+05 3.82750E+05-1.45766E+03 2.97237E+05
 -1       162 2.33078E+05-1.28235E+05-6.73529E+04 1.00105E+05-2.39895E+03-7.44975E+04
 -1       163 3.59604E+05-2.74931E+05-2.22130E+05 1.75353E+05 3.82528E+04-6.02367E+04
 -1       164 1.32044E+06-3.69315E+05-2.73027E+05 1.84725E+05 4.48380E+04 3.87824E+04
 -1       165 3.70858E+05-3.58751E+05-6.35625E+04 2.46142E+04 5.81669E+03-1.85416E+05
 -1       166 2.33711E+06-3.54965E+05-1.85914E+05 1.10212E+05 3.86939E+04 2.25066E+05
 -1       167 2.55281E+06-1.45670E+05-1.48320E+05-2.31660E+04 4.10669E+03 3.92863E+05
 -1       168 4.42502E+06-7.13267E+04-2.15944E+05-9.09281E+03 4.64023E+04 3.64884E+05
 -1       169 2.78474E+05-1.61374E+05-6.84696E+04 3.42285E+04 2.97030E+04-1.02734E+05
 -1       170-4.41398E+06 1.35455E+05 3.86119E+05 4.42470E+05 6.79746E+04 6.42274E+05
 -1       171-1.08020E+06 3.08088E+05 1.38267E+04 1.82903E+04 1.90813E+03-1.07858E+03
 -1       172-1.19964E+06 1.93126E+05 2.42207E+05 1.87334E+05 2.25619E+04 1.50641E+05
 -1       173-9.32159E+06-4.78433E+05 6.59327E+05 5.62356E+05 3.97571E+04 5.59453E+05
 -1       174-8.31830E+06-2.84466E+05 6.64521E+05 6.52290E+04 4.35753E+04 1.03145E+05
 -1       175-6.05623E+06 2.66003E+05 3.95240E+05-2.50842E+04 9.28420E+04 2.73649E+05
 -1       176-1.27201E+07-2.59219E+06-1.30423E+06 1.42399E+06-2.90544E+05 1.64664E+06
 -1       177-6.53579E+06-2.12919E+04 3.08659E+05 2.32719E+05 3.79309E+03 4.75479E+05
 -1       178-4.01844E+06 9.08541E+04 2.56379E+05 1.69005E+04-4.11519E+04 4.41083E+05
 -1       179-2.36977E+06 1.73815E+05 1.11428E+05 1.44953E+04-5.89315E+04 2.99584E+05
 -1       180-2.87815E+05 2.00080E+05 1.35348E+05-1.56666E+04 5.89691E+03-1.30305E+05
 -1       181-2.34196E+06 2.39822E+05-4.55996E+04 8.85749E+04 1.47347E+04 2.08238E+05
 -1       182-1.99948E+06 1.52265E+05 2.63609E+05 2.86542E+05 3.01075E+04 3.36133E+05
 -1       183-2.33923E+06 3.96985E+05 4.88095E+05 3.26232E+05 1.44103E+05 4.71824E+05
 -1       184-4.12473E+06 2.69531E+03 1.39364E+05 5.31743E+05 1.18614E+05 4.40662E+05
 -1       185-2.25513E+05 1.44318E+05 1.33681E+05 5.60007E+04 3.35808E+04-9.73294E+04
 -1       186-3.11585E+05 1.97843E+05 1.35653E+05 1.88889E+05-9.03058E+04 2.31086E+04
 -1       187-1.44950E+06 2.90726E+05 1.26430E+05 2.09629E+05 5.78281E+04 2.59606E+05
 -1       188-1.15732E+07-2.78035E+06-1.12840E+06 1.06040E+05 9.80713E+04 1.73490E+06
 -1       189-9.23514E+06-2.06299E+06-6.30385E+05 4.03805E+05-1.77489E+05 1.43919E+06
 -1       190-5.20004E+06 4.21010E+05 1.41373E+05 3.99265E+05-2.01298E+05 2.24233E+05
 -1       191-6.34346E+06-1.53748E+04 9.33221E+05 5.01709E+05 1.36843E+05-1.25521E+05
 -1       192-1.10787E+07-2.26248E+06-1.24341E+06-9.19415E+05 3.06430E+05 1.41611E+06
 -1       193-1.17143E+07-3.09728E+06-1.48331E+06 2.50059E+05-2.08891E+04 1.85739E+06
 -1       194-4.48067E+05 3.22425E+05 2.53832E+04 6.47035E+04 2.05930E+04-4.45342E+04
 -1       195-1.80985E+06-3.42571E+04 2.21382E+03 3.48891E+05 9.63566E+04 3.52348E+06
 -1       196 1.09556E+06-8.16050E+04-1.43007E+05 1.85983E+05-3.17578E+04 2.57776E+06
 -1       197 4.56362E+06 5.76039E+05 1.11190E+06 3.84588E+05-1.06442E+05 2.95171E+06
 -1       198 2.42380E+06 5.37037E+05 4.79636E+05 4.05918E+05-1.81612E+04 3.16966E+06
 -1       199 2.51512E+06-1.93033E+05-3.19386E+05 9.25814E+04-1.97393E+05 2.76396E+06
 -1       200 7.90529E+05-5.23504E+04 8.49589E+04 1.23185E+05-1.13924E+05 3.19634E+06
 -1       201 2.66689E+06 4.59395E+05 3.25321E+05 3.91062E+05 3.49563E+04 2.94365E+06
 -1       202 2.02471E+06-1.47253E+05-3.41492E+05 2.78336E+05-2.25848E+04 1.03442E+06
 -1       203 8.51925E+05-1.06861E+05-2.41236E+05 1.47249E+05-2.56590E+04 7.86329E+05
 -1       204 9.57632E+05 4.38594E+04-1.61339E+05 1.79628E+05-4.72403E+04 1.77360E+06
 -1       205 1.32364E+06-9.99637E+04-7.63717E+04 2.40980E+05-2.96198E+04 1.15370E+06
 -1       206 2.94998E+06-7.48405E+04-2.76204E+05 3.28303E+05-1.33265E+04 1.65063E+06
 -1       207 3.19743E+05-1.62565E+03-3.45652E+05 3.71754E+04-7.40188E+04 9.71433E+05
 -1       208 4.15089E+05-7.49009E+03-6.02009E+05 5.80373E+04-4.45699E+04 7.17922E+05
 -1       209-1.46518E+06 2.54079E+05 4.04648E+05 1.66317E+05-2.90320E+04 5.32156E+05
 -1       210-5.17876E+05 2.44108E+05 3.66134E+05 6.69269E+04-1.86040E+04 1.88999E+05
 -1       211-4.39797E+05 8.33134E+04 3.05363E+05 6.04615E+04-7.07817E+03 4.43122E+05
 -1       212-3.81408E+05 1.42302E+05 4.78086E+05 4.04212E+04 3.79077E+04 1.52659E+05
 -1       213-4.69643E+06-2.01714E+05-3.56286E+04 3.10442E+05-1.34933E+05 1.72117E+06
 -1       214-5.88019E+06-1.44732E+05-6.59885E+04 1.49874E+05-2.65671E+05 1.63959E+06
 -1       215 6.84991E+06 1.03536E+06 6.29180E+05 7.19283E+05 8.23728E+04 1.79298E+06
 -1       216 5.89732E+06 1.06623E+06 9.38576E+05 5.78166E+05-1.61273E+04 2.01373E+06
 -1       217-2.18366E+05 1.14899E+05 3.58510E+05 4.34364E+04-3.05493E+04 1.01055E+06
 -1       218-4.36344E+05 1.24601E+05 5.82625E+05-2.86417E+04-4.82958E+04 7.99323E+05
 -1       219-3.55384E+04 2.12624E+04-5.67857E+04 1.24070E+05-1.19420E+02 1.92420E+06
 -1       220 4.41332E+05 3.02356E+04 2.35025E+04 2.29529E+05 4.02938E+04 2.82810E+06
 -1       221 4.37032E+05-8.22173E+04-2.54080E+05 1.11772E+05-2.94470E+04 1.52592E+06
 -1       222-1.32992E+06 1.55516E+05 3.97621E+05 2.37494E+05-3.46414E+04 8.86622E+05
 -1       223-7.57549E+05-2.13703E+04 2.21929E+04 1.66487E+05 4.76544E+03 1.60701E+06
 -1       224-1.51641E+06 1.04400E+05 2.11052E+05 3.31966E+05 3.99854E+04 2.09554E+06
 -1       225-2.41087E+06-1.56402E+04 9.82541E+04 3.21418E+05-6.09745E+04 2.24985E+06
 -1       226-2.30582E+06-1.51693E+05-1.42231E+05 2.50041E+05-1.06411E+05 2.90238E+06
 -1       227-4.76213E+05 4.58880E+04 1.41904E+05 3.21064E+05-4.50506E+04 3.31366E+06
 -1       228-3.54256E+06-5.46515E+04 9.64410E+04 4.09198E+05 6.82584E+04 2.08967E+06
 -1       229 3.01998E+06 1.29678E+05-4.75076E+04 3.47717E+05-1.65223E+05 2.16543E+06
 -1       230 6.96565E+05-5.16913E+04 9.34933E+04 1.44766E+05-1.64943E+05 3.14220E+06
 -1       231-1.88466E+06-1.44562E+05 5.32734E+02 7.02520E+04 8.39366E+04 2.41591E+06
 -1       232-5.79943E+05 3.97526E+04 8.73340E+03 1.39529E+05 4.20404E+04 2.11684E+06
 -1       233-1.03991E+06-4.70818E+03 2.03198E+05 2.23496E+05 1.22692E+05 3.66034E+06
 -1       234 2.32619E+05-1.03222E+05-1.85600E+05 2.22900E+05-9.54191E+04 3.22655E+06
 -1       235 2.00641E+06-4.53010E+04-1.94031E+05 3.15120E+05 3.42004E+04 2.20285E+06
 -1       236 2.12616E+06 1.34339E+05 5.90387E+03 4.42295E+05 1.51823E+05 2.62918E+06
 -1       237-8.86310E+05-1.96401E+04-9.95919E+04 2.70398E+05-9.79576E+04 3.22915E+06
 -1       238 2.85582E+04 1.17765E+05 2.58195E+05 2.21882E+05 9.89676E+04 3.37702E+06
 -1       239 6.09740E+05-1.78831E+05-3.53348E+05-8.18403E+01 7.63846E+04 1.16414E+05
 -1       240 6.67082E+05-1.62765E+05-1.53724E+05 1.68014E+05-4.86120E+04 8.13286E+05
 -1       241 6.60061E+05-1.35948E+05-5.32258E+05 1.10502E+05 6.83879E+04 1.11174E+06
 -1       242 1.37446E+06-1.09865E+05-3.67926E+04 1.25961E+05-4.32367E+03 1.16565E+06
 -1       243 5.59681E+05-8.91131E+04-5.80779E+05-5.57617E+04 4.70522E+04 7.54914E+05
 -1       244 3.96379E+05-5.08312E+04-1.19165E+05 6.22450E+04 6.61239E+04 1.51248E+06
 -1       245 1.25125E+06-2.28711E+04-1.14817E+05 1.82566E+04 5.75425E+04 1.87709E+06
 -1       246 1.08250E+06-1.25235E+05-1.45764E+05-5.57368E+03 5.23731E+04 7.52434E+05
 -1       247 2.72193E+06-1.40573E+04-1.68945E+05-1.71948E+04 4.05298E+04 1.63641E+06
 -1       248-7.08252E+06-1.17001E+05 6.51932E+04 2.42254E+05 2.68440E+05 1.80232E+06
 -1       249-3.11137E+06-3.42376E+04 2.77011E+04 1.43767E+05 2.15387E+05 3.15679E+06
 -1       250-5.58389E+06-2.99569E+05 1.00286E+05 4.99792E+05 1.99632E+04 2.08337E+06
 -1       251-3.63356E+06-1.51678E+05-4.53968E+04 3.37017E+02 5.55005E+04 1.98337E+06
 -1       252-4.26499E+06-5.10680E+05-1.26972E+06 2.71202E+05 1.90516E+05 2.82922E+06
 -1       253-1.49992E+06-1.92050E+05-3.34311E+05 3.16479E+05 1.61279E+05 2.97512E+06
 -1       254-2.90553E+06-8.50920E+05-1.04095E+06 5.26003E+05 5.28484E+04 3.12688E+06
 -1       255-6.66405E+06-1.03989E+06-4.08890E+05 6.64653E+05 5.44561E+04 1.71744E+06
 -1       256-6.33182E+06-1.77335E+06-1.33071E+06 3.62527E+05 1.64229E+04 2.92071E+06
 -1       257 1.02681E+05-8.02720E+04-1.12141E+05 2.17484E+05 1.94490E+05 3.30986E+06
 -1       258-1.80824E+05-1.13473E+05-6.44935E+04 1.37461E+05 1.34892E+04 2.16399E+06
 -1       259-2.74994E+06-4.89100E+05-4.99210E+05 2.09898E+05-1.55345E+04 2.92296E+06
 -1       260 3.18891E+06 7.60008E+05 1.08767E+06-5.13841E+04 2.13297E+05 2.64219E+06
 -1       261 6.49124E+06 1.30968E+06 6.67763E+05-2.05800E+05-2.55300E+04 1.96065E+06
 -1       262 4.37982E+05-1.20488E+05-4.46797E+05 9.98603E+04-2.89172E+04 1.92852E+05
 -1       263-1.11979E+06 1.49391E+04 2.19642E+05 1.31275E+05 2.58308E+04 8.32299E+05
 -1       264-6.24851E+06-9.17190E+05-5.28891E+05-1.92413E+05 7.87243E+04 1.76702E+06
 -1       265 7.04040E+06 1.54206E+05 5.77030E+04 1.32169E+05-3.04660E+05 1.62505E+06
 -1       266-3.43664E+06-5.73709E+05-8.56630E+05-1.09407E+05-3.66930E+04 2.90065E+06
 -1       267-1.08280E+06 1.58974E+05 1.87281E+05-4.86895E+04-4.84813E+04 6.79597E+05
 -1       268 5.65457E+06 2.69504E+05 1.68736E+05 7.39833E+04 1.87242E+05 2.05964E+06
 -1       269-4.44002E+05 2.56915E+04 5.75820E+05 8.99149E+04 7.28362E+04 7.52307E+05
 -1       270 4.52868E+05-1.23307E+05-2.57735E+05 1.47418E+05-4.07783E+04 5.21677E+05
 -1       271 3.98762E+06 4.62982E+05 2.43593E+05 1.28889E+05-1.76333E+05 2.35691E+06
 -1       272 2.65192E+06 1.93989E+05 2.51184E+04 1.63833E+05 9.39497E+04 2.75242E+06
 -1       273 5.30422E+06 5.86908E+04-1.91902E+05 6.30984E+04-2.57133E+05 1.55250E+06
 -1       274-1.21541E+06-8.80357E+04 1.75836E+04 1.87996E+05-4.91193E+04 1.89090E+06
 -1       275-3.31641E+05 1.19675E+03 2.80946E+05 1.12064E+05 6.63403E+04 9.74289E+05
 -1       276-1.44395E+06-2.59347E+05-4.45524E+05 1.38784E+05-4.68209E+04 2.87678E+06
 -1       277-2.35388E+06 1.06343E+05 3.56276E+05 9.57064E+04-5.12727E+04 1.02758E+06
 -1       278 3.06784E+06 3.56419E+04-8.25442E+04 1.46134E+05 7.91314E+04 2.47264E+06
 -1       279-5.44626E+06-8.57071E+05-7.07341E+05 4.78948E+04 7.51284E+04 1.91068E+06
 -1       280 1.04288E+06 7.11038E+04 3.09845E+05 3.12070E+05 1.54992E+05 2.86183E+06
 -3
    1PSTEP                         3           1           1          
    1PGM                1.000000E+00                                  
    1PGK                1.163246E+11                                  
    1PHID                         -1                                  
    1PSUBC                         0                                  
    1PMODE                         1                                  
  100CL  101 5.42820E+04         280                     2    1MODAL      1
 -4  TOSTRAIN    6    1
 -5  EXX         1    4    1    1
 -5  EYY         1    4    2    2
 -5  EZZ         1    4    3    3
 -5  EXY         1    4    1    2
 -5  EYZ         1    4    2    3
 -5  EZX         1    4    3    1
 -1         1 6.31044E+01-4.19995E+00-8.48983E+00 1.55153E+01 4.21978E+00 1.86162E+01
 -1         2-5.19904E+01 2.53925E+00 7.97950E+00-1.21710E+01 3.38300E+00 1.60604E+01
 -1         3 5.17935E+01-2.86996E+00-7.47831E+00-1.20482E+01-3.28851E+00 1.53869E+01
 -1         4-6.33506E+01 4.50102E+00 8.11541E+00 1.52761E+01-3.72090E+00 1.78105E+01
 -1         5-8.23650E-01 7.33359E-01-1.47290E+00-2.40857E-01 1.77800E-01-2.10151E+00
 -1         6 5.83164E-01-8.80011E-01 1.68342E+00-1.18070E-01 3.29012E-01-2.02491E+00
 -1         7-7.88682E-01 1.03818E+00-1.48748E+00-5.35725E-02 7.53850E-03-2.05666E+00
 -1         8 9.28080E-01-6.45678E-01 1.31126E+00-4.25610E-01-1.01966E-01-2.04278E+00
 -1         9 5.74207E+00-1.02205E+00 2.79838E-01 2.18373E+00-4.42656E-01 1.37424E+01
 -1        10 2.78990E+01 3.52131E-05 8.17383E-06 1.20134E+01 5.86412E-06 1.32721E+01
 -1        11-1.62817E+01-2.61055E-05-2.54278E-07-6.56627E+00 6.28559E-06 1.26652E+01
 -1        12 5.66859E+01-4.77509E-01-2.45695E+00 1.47654E-01-1.65873E-01 2.69676E+01
 -1        13 6.57001E+01 3.07857E-05 6.98125E-05 6.02234E+00-5.09282E-06 3.07168E+01
 -1        14 5.81187E+01 2.06444E-05 7.01465E-05-4.80294E+00 2.77336E-06 2.74322E+01
 -1        15-5.50896E+00 1.04671E+00-6.17737E-02 2.51463E+00 8.51783E-01 1.43381E+01
 -1        16 1.64063E+01 2.39589E-05-1.21826E-06-6.64055E+00-8.35718E-06 1.27765E+01
 -1        17-2.82501E+01-4.16456E-05-5.07701E-06 1.24344E+01-4.32571E-06 1.34889E+01
 -1        18-5.31674E+01 5.69039E-01 6.91550E+00 1.64410E+00-6.64227E-01 2.15426E+01
 -1        19-6.22089E+01-2.75181E-05-6.52013E-05-4.14527E+00-5.21799E-06 2.94940E+01
 -1        20-6.58131E+01-2.58444E-05-8.30116E-05 6.56269E+00-9.74302E-09 2.91100E+01
 -1        21-5.26659E-01 2.52406E-01-1.24611E-01 7.48021E-02 9.50802E-01 4.25064E+00
 -1        22 1.88858E-01 1.07640E+00-2.94433E+00-1.59050E-01 8.16802E-01 1.08566E+00
 -1        23-5.21364E-02-1.21145E+00 2.90473E+00 2.69450E-01 6.90206E-01 1.18475E+00
 -1        24 1.10168E-01-1.10256E+00-1.04609E+00 4.60296E-01 1.57602E-01-2.62711E+00
 -1        25-5.41369E-01-6.86698E-01-8.37237E-01 3.21621E-01 1.36574E-01-1.76978E+00
 -1        26-6.70309E-01 1.69770E-01-1.04546E+00 9.91457E-02 1.01661E-01-1.28528E+00
 -1        27 3.05452E-02 8.93699E-02-1.23851E-01-1.37628E-01-1.28656E+00 3.91895E+00
 -1        28 3.31188E-01 1.16145E+00-3.25664E+00 1.57473E-01-7.57478E-01 1.03507E+00
 -1        29-2.69836E-01-1.01770E+00 3.04045E+00-3.33799E-01-7.79262E-01 1.00669E+00
 -1        30-1.58813E-01 7.36858E-01 7.16414E-01 6.59788E-01-3.58925E-01-1.32766E+00
 -1        31 3.83554E-01-2.71911E-01 9.28334E-01 1.23271E-01-2.42391E-01-9.89836E-01
 -1        32 4.47058E-01 5.42849E-01 6.85679E-01 1.47510E-01-2.26697E-02-9.96081E-01
 -1        33 2.02186E+01-6.59143E+00-7.14374E+00-2.19489E+00-5.07632E-01 3.70933E+00
 -1        34 4.46337E+01-1.10721E+01-1.32582E+01 2.54573E+00 1.02229E+00 5.77733E+00
 -1        35 7.46858E+00-1.97785E+00-2.70673E+00-6.28472E-01 2.29720E-01 1.37018E+00
 -1        36-1.56326E+01 5.62138E+00 5.29148E+00 3.27400E+00-7.50040E-01 3.11963E+00
 -1        37-3.70719E+01 8.73584E+00 1.13634E+01-1.25023E+00 7.09036E-01 5.29025E+00
 -1        38-5.74486E+00 1.36154E+00 2.30749E+00 9.29756E-01-7.46070E-02 1.12607E+00
 -1        39 1.68357E+01-5.77073E+00-5.42526E+00 3.15374E+00-2.39446E-01 3.20354E+00
 -1        40 3.73082E+01-9.23626E+00-1.13877E+01-1.11670E+00-1.84163E+00 4.75604E+00
 -1        41 5.68417E+00-1.33205E+00-2.37817E+00 8.61784E-01-4.06359E-01 1.22580E+00
 -1        42-2.08127E+01 7.18174E+00 7.07261E+00-2.40442E+00-2.01692E-01 2.92830E+00
 -1        43-4.51338E+01 1.20546E+01 1.35417E+01 1.98507E+00-1.05835E+00 4.97202E+00
 -1        44-7.04280E+00 1.81678E+00 2.91154E+00-3.23049E-01-5.41420E-01 1.28314E+00
 -1        45-1.63648E+00 1.73050E-01 1.52063E-01 1.82267E+00-9.04602E-01 1.90531E+01
 -1        46-1.59679E+01 1.30571E+00 5.86499E-02-1.97342E+00 3.05484E-01 1.98974E+01
 -1        47 1.84138E+01-1.38012E+00 2.89431E-01 5.65477E+00 6.82949E-01 2.06104E+01
 -1        48-1.44313E+01 3.55688E-01-1.63071E+00 4.65152E+00 3.38210E-01 1.78842E+01
 -1        49 1.26790E+01 3.77668E-01 5.00263E-01-2.42008E+00 4.38932E-01 1.57829E+01
 -1        50-2.96821E+01 4.77331E-01 2.37958E+00-7.09959E+00 1.42850E+00 1.78910E+01
 -1        51-4.22462E+00-1.72416E-05-3.15623E-06-9.75279E-01 3.30462E-06 1.47012E+01
 -1        52 2.88136E+00-2.07831E-06-9.78064E-01 1.79018E+00-2.06059E-01 1.67844E+01
 -1        53-7.43336E+00 1.62435E-01 2.08012E-01 7.73757E-01 1.85235E-01 1.80394E+01
 -1        54 1.13188E+01-1.31147E+00 1.18091E+00 4.35918E+00-6.52928E-02 1.59790E+01
 -1        55 3.59513E+01-1.03349E+00-2.44263E+00 1.07861E+01 1.73811E+00 1.95438E+01
 -1        56 9.30417E+00-1.88066E-02-3.59399E-01 2.88260E+00 1.89128E-01 1.97388E+01
 -1        57 3.71291E+01-2.08535E-01-1.42270E+00 3.32967E+00-8.15676E-01 2.39780E+01
 -1        58 2.23962E+01-3.89967E-01 5.64788E-05 1.21041E+00-1.10418E-02 2.14645E+01
 -1        59 3.39314E+01 2.35345E-05 5.80921E-05-2.21525E+00 7.35551E-06 2.22358E+01
 -1        60 3.06873E+01-5.55366E-01-1.82652E+00-7.43716E+00-1.19098E+00 1.64593E+01
 -1        61 1.23999E+00 1.03181E-01 9.48039E-01 1.23264E+00 5.25585E-01 1.60823E+01
 -1        62-3.50850E+01 1.11492E+00 2.56358E+00 9.55161E-01-1.83930E+00 2.19566E+01
 -1        63-1.76126E+01-1.48927E-05-5.47893E-06 2.32233E+00-1.46639E-07 1.83309E+01
 -1        64-1.09209E+01 8.85907E-01-6.44527E-01 4.66247E+00 1.20704E-01 1.60006E+01
 -1        65-3.53502E+01 1.09923E+00 1.59327E+00 1.00920E+01-1.34630E+00 1.81368E+01
 -1        66-8.06660E+00-1.02569E-05-4.91637E-06 2.77409E+00-1.47574E-06 1.75170E+01
 -1        67-2.59649E+00 2.24534E-06 8.64871E-01 2.00570E+00 1.88391E-01 1.64921E+01
 -1        68-3.11285E+01-4.48043E-02 1.63437E+00 2.73297E+00 7.94828E-01 1.93037E+01
 -1        69 4.57698E+00 1.69312E-05 2.16016E-06-1.25375E+00-6.53258E-06 1.45605E+01
 -1        70 9.59217E-01-2.23126E-01-2.41662E-01 1.62758E-01-3.42615E-01 3.69041E+00
 -1        71-1.51718E+00-7.44373E-01 4.42995E+00-1.82398E-01 8.08793E-01 1.46575E-01
 -1        72-8.58176E-01-1.00295E-01 3.50114E+00 3.35933E-01-6.89376E-01 1.50826E+00
 -1        73 1.49960E+00 9.02641E-01-4.61167E+00-2.10259E-02-4.75062E-01 3.16261E-01
 -1        74 1.85176E+00 2.24928E-01-4.58179E+00-7.05999E-02 8.54461E-01 5.96218E-01
 -1        75-5.45578E-01 3.34099E-01 2.06386E+00 7.22237E-01-4.19386E-01 3.42010E-01
 -1        76-8.84666E-01-1.61662E-01 2.89888E+00 1.96672E-03-3.62478E-01-3.28967E-01
 -1        77-6.58302E-01-5.80966E-02 2.72258E+00-1.82410E-01-1.39114E+00 1.92316E+00
 -1        78 3.29043E-01-2.12312E-01 1.80843E+00 2.83061E-02-3.08969E-01 1.50656E+00
 -1        79 6.23160E-01-3.36851E-01 2.13480E+00 2.77131E-01-7.72853E-01 2.60380E+00
 -1        80 1.41396E-01 8.22691E-02 5.18071E-02-1.18849E-01-1.51444E+00 3.00325E+00
 -1        81 1.37197E+00 4.34236E-02-3.48909E+00 1.60145E-01-2.09887E-01-3.09056E-01
 -1        82 7.98096E-01 9.98246E-01-3.52298E+00-7.64224E-02-1.16091E-01-7.17919E-01
 -1        83 6.00367E-01 8.00478E-01-3.01916E+00 1.88736E-01-9.77761E-01 1.75240E+00
 -1        84 5.23547E-01 3.31890E-01-2.46246E+00-1.75196E-01-8.01494E-01 1.65104E+00
 -1        85 1.01401E+00-3.59149E-01-2.42527E+00 3.45923E-01 4.37975E-03 1.12615E+00
 -1        86 1.49817E+00-6.47313E-01-3.13306E+00 1.51077E-01 7.96876E-01-1.06601E+00
 -1        87 1.17199E+00 4.42827E-01-3.63011E+00-1.35506E-01 2.61149E-01-4.87493E-01
 -1        88 2.45569E-01 3.73033E-01-2.71180E+00-2.84395E-02 8.90842E-01 2.34690E+00
 -1        89 1.00698E+00 3.11451E-02-2.85174E+00 2.46483E-01 1.37389E+00 2.30338E+00
 -1        90-1.84651E-01-5.98827E-02 5.85183E-01 2.13675E-01 1.01766E+00 3.01186E+00
 -1        91-1.25923E+00-1.51729E-01 2.72644E+00 1.97442E-02 3.45612E-02-2.10647E-01
 -1        92-9.11084E-01-8.54228E-01 3.55186E+00-2.09961E-01 4.76539E-01-7.39723E-01
 -1        93-8.91908E-01-1.89435E-01 2.62036E+00-1.27084E-01 9.42804E-01 1.22620E+00
 -1        94-2.44405E-01-6.77639E-01 2.69028E+00 2.00259E-01 9.08203E-01 1.82923E+00
 -1        95 1.88159E+00-8.22194E-01-4.69678E-01 6.19183E-01-1.04764E+00 2.34181E+01
 -1        96-4.86871E+00 7.06344E-01 2.42698E+00 6.53445E-01 1.07844E-01 9.99101E+00
 -1        97 5.94119E+00-1.29075E+00-2.79925E+00-4.96825E-01 2.45823E-01 9.53282E+00
 -1        98 2.26574E+01-8.34329E+00-6.06629E+00-7.35869E-01-2.15768E+00 1.80204E+01
 -1        99-1.40220E+01 4.93387E+00 3.57704E+00 6.58894E-01-1.58593E+00 1.80505E+01
 -1       100 4.11857E+01-8.16962E+00-7.84227E+00 6.77342E+00 1.59741E+00 1.68290E+01
 -1       101 1.21860E+01-6.92393E+00-4.43830E-01 9.01389E-01-7.92971E-01 1.59180E+01
 -1       102 4.10600E+00-1.77287E+00-5.71845E-01 1.60470E+00-7.35299E-01 1.93705E+01
 -1       103 1.14214E+01-4.16667E+00-4.17210E+00 2.08607E-01-1.32122E+00 2.01409E+01
 -1       104-4.10033E+00 1.27696E+00 2.18714E+00 4.50322E-01-1.34076E+00 2.03925E+01
 -1       105-2.72789E+00 2.60924E+00 5.62923E-03 8.55125E-01-1.12812E+00 1.59360E+01
 -1       106-3.09092E+01 5.59868E+00 6.31651E+00-4.73895E+00 1.13381E+00 1.54087E+01
 -1       107-3.12842E+00 6.77885E-01 9.28378E-01 2.32368E-01-2.44762E-01 1.69311E+01
 -1       108-9.82174E+00 2.36949E+00 3.75438E+00 7.68747E-01-4.65680E-01 7.98283E+00
 -1       109-9.09970E+00 2.38518E+00 2.94569E+00 8.59713E-01-5.43799E-01 1.50708E+01
 -1       110 7.27262E-01-4.96033E-02-3.60003E-01 3.51157E-01 1.99978E-01 1.41809E+01
 -1       111-2.46639E+00 4.00951E-01 1.60730E+00 3.51136E-01 5.29932E-01 7.04215E+00
 -1       112-2.43131E+00-3.02403E-02 1.98251E+00 4.40412E-01 3.25002E-01 3.71447E+00
 -1       113 5.04579E+00-1.12388E+00-1.37773E+00 6.63820E-02-2.77884E-01 1.69471E+01
 -1       114 2.67765E+00-2.62977E-01-2.22785E+00-4.47786E-02 5.67015E-01 7.25397E+00
 -1       115 1.17225E+01-3.14403E+00-4.26026E+00-7.22774E-01-3.75190E-01 1.49834E+01
 -1       116 1.23766E+01-3.54855E+00-4.63461E+00-6.25996E-01-3.87347E-02 7.92851E+00
 -1       117 2.61958E+00-1.95028E-01-2.11094E+00-5.01413E-01 2.82162E-01 3.42840E+00
 -1       118 2.23207E+01-7.06714E+00-7.53154E+00-2.34932E+00-1.64414E+00 1.01343E+01
 -1       119-1.60147E+01 5.73203E+00 5.43059E+00 3.45539E+00-1.77312E+00 9.75118E+00
 -1       120-2.53719E+00 5.72111E-01 1.07852E+00 7.67553E-01 7.93881E-01 2.36859E+01
 -1       121 4.26434E+00-3.76636E-01-2.56170E+00 3.74647E-01-1.31377E-01 9.37500E+00
 -1       122 1.23936E+01-4.84626E+00-2.63802E+00 1.10737E+00 2.20201E+00 1.78277E+01
 -1       123-6.01746E+00 1.16291E+00 3.14550E+00-5.27094E-01-4.19853E-03 9.25508E+00
 -1       124-2.16124E+01 8.86216E+00 5.05963E+00-7.09597E-01 1.80065E+00 1.82333E+01
 -1       125-1.26980E+01 3.86588E+00 4.51757E+00-8.52819E-01-5.34376E-01 6.92205E+00
 -1       126-4.98828E+00 8.71364E-01 1.70127E+00 3.03504E-01 6.30852E-01 1.62967E+01
 -1       127-1.30667E+01 3.93808E+00 4.40254E+00-1.03260E+00-3.91325E-01 1.50141E+01
 -1       128-2.59511E+00 6.86155E-02 2.15364E+00-6.47433E-01-1.87565E-01 3.37154E+00
 -1       129-2.20313E+01 7.94673E+00 7.42895E+00-2.85129E+00 1.17168E+00 1.02413E+01
 -1       130-9.78186E+00 3.09638E+00 4.23229E+00 9.92890E-02 1.37684E+00 2.10214E+01
 -1       131-4.14391E+01 9.03554E+00 7.17621E+00 6.94830E+00-1.44689E+00 1.64997E+01
 -1       132 1.02467E+01-2.44945E+00-3.70583E+00 1.00497E+00-1.23894E-01 7.19123E+00
 -1       133 6.98906E+00-1.75445E+00-2.80223E+00 1.12390E+00 1.72189E-02 1.49492E+01
 -1       134 2.13689E+00 7.42262E-02-5.79020E-01 4.80678E-01 4.74497E-01 1.64296E+01
 -1       135 2.20776E+00 2.05333E-01-1.95019E+00 2.67232E-01-2.35221E-01 3.37849E+00
 -1       136 2.53489E+00-1.36183E-01-1.89363E+00 2.37614E-01-6.92462E-01 6.86927E+00
 -1       137-8.73988E-01 2.23018E-01 3.70877E-01 4.26641E-01 2.12310E-01 1.40373E+01
 -1       138 2.66691E+00-2.08905E+00 3.81122E-01 1.15180E+00 1.79775E+00 1.60127E+01
 -1       139-4.15203E+00 1.49512E+00 2.62476E-01 9.60570E-01 1.21726E+00 1.94938E+01
 -1       140 3.26319E+00-9.54429E-01-1.93611E+00 6.44899E-01 1.39831E+00 2.09231E+01
 -1       141 3.05934E+01-5.96370E+00-5.68111E+00-5.00786E+00-7.31814E-01 1.50805E+01
 -1       142 1.60646E+01-7.29212E+00-5.04099E+00 3.30230E+00 1.38205E+00 9.79251E+00
 -1       143-2.93930E+00 3.61530E-01 1.87851E+00-2.38545E-01-4.27921E-01 6.73505E+00
 -1       144-1.30762E+01 6.07692E+00 3.11028E-01 1.77516E+00 9.49965E-01 1.59866E+01
 -1       145 2.53221E+01-7.05561E+00-9.53760E+00 2.67351E+00 8.75777E-02 4.10630E+00
 -1       146 4.17240E+01-9.13261E+00-1.38947E+01 3.38134E-01-7.25802E-02 8.69838E+00
 -1       147 5.30818E+00-2.51715E+00-1.66286E+00 1.64391E+00 3.31534E-02 1.19502E+00
 -1       148 5.86139E+00-2.98010E+00-1.14068E+00 1.81632E-01 1.36253E-01 3.73776E-01
 -1       149 4.54813E+01-1.09999E+01-1.76293E+01 2.95140E+00 1.82319E-01 3.95735E-01
 -1       150 5.18764E+01-4.46099E+00-1.58726E+01 7.43523E-01-5.05918E-02 1.13616E+01
 -1       151 5.72041E+01-8.69475E+00-1.50373E+01 9.00022E+00 2.42556E+00 1.03256E+01
 -1       152 4.21650E+01-4.36817E+00-1.00590E+01 1.49325E+00 8.43319E-02 1.29307E+01
 -1       153 5.09723E+01-5.13556E+00-9.87554E+00 8.32848E-01-1.87798E-01 1.83458E+01
 -1       154 3.36190E+01-7.77317E+00-1.11960E+01 2.43411E+00 6.98079E-01 7.33911E+00
 -1       155 3.54248E+01-8.81032E+00-1.47292E+01 6.37626E-01 3.63593E-01-7.09695E-01
 -1       156 4.91162E+01-6.16135E+00-1.45340E+01-5.16406E+00-1.82932E+00 1.06914E+01
 -1       157 3.00415E+01-1.07564E+01-9.40836E+00-3.22048E-01-1.64501E+00 1.10290E+00
 -1       158 2.93770E+01-8.91982E+00-8.82686E+00 2.76663E+00 4.48527E-01 3.71282E+00
 -1       159 1.85500E+01-5.59664E+00-6.02987E+00 3.25359E+00-2.71151E-01 3.59880E+00
 -1       160 1.03931E+01-3.64743E+00-3.28310E+00 2.02288E+00-2.28190E-01 2.04771E+00
 -1       161 1.17955E+01-4.37873E+00-4.47579E+00 2.48788E+00-9.47478E-03 1.93204E+00
 -1       162 1.45877E+00-8.89763E-01-4.94028E-01 6.50681E-01-1.55932E-02-4.84233E-01
 -1       163 2.54361E+00-1.58087E+00-1.23766E+00 1.13980E+00 2.48643E-01-3.91538E-01
 -1       164 7.56569E+00-3.41769E+00-2.79182E+00 1.20071E+00 2.91447E-01 2.52085E-01
 -1       165 2.48776E+00-2.25470E+00-3.35974E-01 1.59992E-01 3.78085E-02-1.20521E+00
 -1       166 1.24969E+01-5.00162E+00-3.90279E+00 7.16377E-01 2.51510E-01 1.46293E+00
 -1       167 1.32050E+01-4.33508E+00-4.35231E+00-1.50579E-01 2.66935E-02 2.55361E+00
 -1       168 2.25560E+01-6.67025E+00-7.61026E+00-5.91033E-02 3.01615E-01 2.37174E+00
 -1       169 1.73714E+00-1.12188E+00-5.17999E-01 2.22485E-01 1.93069E-01-6.67771E-01
 -1       170-2.28523E+01 6.71907E+00 8.34838E+00 2.87606E+00 4.41835E-01 4.17478E+00
 -1       171-5.88389E+00 3.14000E+00 1.22731E+00 1.18887E-01 1.24029E-02-7.01075E-03
 -1       172-6.65120E+00 2.40178E+00 2.72081E+00 1.21767E+00 1.46652E-01 9.79165E-01
 -1       173-4.68793E+01 1.06012E+01 1.79967E+01 3.65531E+00 2.58421E-01 3.63644E+00
 -1       174-4.21616E+01 1.00583E+01 1.62267E+01 4.23988E-01 2.83240E-01 6.70442E-01
 -1       175-3.12730E+01 9.82150E+00 1.06615E+01-1.63047E-01 6.03473E-01 1.77872E+00
 -1       176-5.77556E+01 8.07548E+00 1.64472E+01 9.25592E+00-1.88854E+00 1.07032E+01
 -1       177-3.31100E+01 9.23423E+00 1.13789E+01 1.51268E+00 2.46551E-02 3.09061E+00
 -1       178-2.06131E+01 6.09736E+00 7.17328E+00 1.09853E-01-2.67487E-01 2.86704E+00
 -1       179-1.22767E+01 4.25659E+00 3.85107E+00 9.42191E-02-3.83055E-01 1.94730E+00
 -1       180-1.94222E+00 1.22910E+00 8.08341E-01-1.01833E-01 3.83299E-02-8.46982E-01
 -1       181-1.20011E+01 4.78044E+00 2.92520E+00 5.75737E-01 9.57756E-02 1.35355E+00
 -1       182-1.06212E+01 3.36513E+00 4.08887E+00 1.86252E+00 1.95699E-01 2.18486E+00
 -1       183-1.30238E+01 4.76162E+00 5.35384E+00 2.12051E+00 9.36672E-01 3.06686E+00
 -1       184-2.08367E+01 5.99152E+00 6.87987E+00 3.45633E+00 7.70993E-01 2.86430E+00
 -1       185-1.54456E+00 8.59338E-01 7.90197E-01 3.64004E-01 2.18275E-01-6.32641E-01
 -1       186-2.05817E+00 1.25311E+00 8.48877E-01 1.22778E+00-5.86988E-01 1.50206E-01
 -1       187-7.87324E+00 3.43824E+00 2.37031E+00 1.36259E+00 3.75882E-01 1.68744E+00
 -1       188-5.20028E+01 5.15063E+00 1.58883E+01 6.89260E-01 6.37464E-01 1.12769E+01
 -1       189-4.21356E+01 4.48334E+00 1.37953E+01 2.62473E+00-1.15368E+00 9.35476E+00
 -1       190-2.68438E+01 9.69305E+00 7.87541E+00 2.59522E+00-1.30844E+00 1.45751E+00
 -1       191-3.30941E+01 8.03848E+00 1.42044E+01 3.26111E+00 8.89479E-01-8.15887E-01
 -1       192-5.01345E+01 7.17068E+00 1.37947E+01-5.97620E+00 1.99179E+00 9.20473E+00
 -1       193-5.17006E+01 4.31001E+00 1.48008E+01 1.62538E+00-1.35779E-01 1.20730E+01
 -1       194-2.76205E+00 2.24615E+00 3.15379E-01 4.20573E-01 1.33854E-01-2.89472E-01
 -1       195-9.00117E+00 2.54016E+00 2.77723E+00 2.26779E+00 6.26318E-01 2.29026E+01
 -1       196 5.81471E+00-1.83685E+00-2.23597E+00 1.20889E+00-2.06426E-01 1.67554E+01
 -1       197 2.02862E+01-5.63308E+00-2.14999E+00 2.49982E+00-6.91871E-01 1.91861E+01
 -1       198 1.05940E+01-1.66996E+00-2.04307E+00 2.63847E+00-1.18048E-01 2.06028E+01
 -1       199 1.33442E+01-4.25877E+00-5.08007E+00 6.01779E-01-1.28305E+00 1.79658E+01
 -1       200 3.90373E+00-1.57498E+00-6.82473E-01 8.00705E-01-7.40504E-01 2.07762E+01
 -1       201 1.21574E+01-2.19134E+00-3.06282E+00 2.54190E+00 2.27216E-01 1.91337E+01
 -1       202 1.08567E+01-3.26109E+00-4.52365E+00 1.80919E+00-1.46801E-01 6.72371E+00
 -1       203 4.78177E+00-1.45034E+00-2.32377E+00 9.57119E-01-1.66784E-01 5.11114E+00
 -1       204 4.96438E+00-9.75143E-01-2.30893E+00 1.16758E+00-3.07062E-01 1.15284E+01
 -1       205 6.88268E+00-2.37072E+00-2.21737E+00 1.56637E+00-1.92529E-01 7.49902E+00
 -1       206 1.52764E+01-4.38486E+00-5.69372E+00 2.13397E+00-8.66221E-02 1.07291E+01
 -1       207 2.11963E+00 3.07352E-02-2.20543E+00 2.41640E-01-4.81122E-01 6.31432E+00
 -1       208 2.98970E+00 2.42929E-01-3.62144E+00 3.77242E-01-2.89704E-01 4.66649E+00
 -1       209-8.31399E+00 2.86119E+00 3.83989E+00 1.08106E+00-1.88708E-01 3.45901E+00
 -1       210-3.50474E+00 1.44815E+00 2.24132E+00 4.35025E-01-1.20926E-01 1.22849E+00
 -1       211-2.78200E+00 6.18218E-01 2.06154E+00 3.93000E-01-4.60081E-02 2.88029E+00
 -1       212-2.83762E+00 5.66490E-01 2.74909E+00 2.62737E-01 2.46400E-01 9.92283E-01
 -1       213-2.31261E+01 6.08951E+00 7.16907E+00 2.01788E+00-8.77067E-01 1.11876E+01
 -1       214-2.90849E+01 8.19561E+00 8.70744E+00 9.74180E-01-1.72686E+00 1.06573E+01
 -1       215 3.17527E+01-6.04185E+00-8.68200E+00 4.67534E+00 5.35423E-01 1.16544E+01
 -1       216 2.64794E+01-4.92271E+00-5.75245E+00 3.75808E+00-1.04828E-01 1.30892E+01
 -1       217-1.80195E+00 3.64278E-01 1.94775E+00 2.82337E-01-1.98571E-01 6.56859E+00
 -1       218-3.24256E+00 4.03582E-01 3.38074E+00-1.86171E-01-3.13923E-01 5.19560E+00
 -1       219-1.24407E-01 2.44798E-01-2.62514E-01 8.06455E-01-7.76228E-04 1.25073E+01
 -1       220 2.12605E+00-5.46073E-01-5.89838E-01 1.49194E+00 2.61910E-01 1.83826E+01
 -1       221 2.68960E+00-6.85515E-01-1.80262E+00 7.26515E-01-1.91406E-01 9.91848E+00
 -1       222-7.47929E+00 2.17602E+00 3.74971E+00 1.54371E+00-2.25169E-01 5.76304E+00
 -1       223-3.78898E+00 9.96182E-01 1.27934E+00 1.08217E+00 3.09754E-02 1.04456E+01
 -1       224-8.05525E+00 2.48004E+00 3.17328E+00 2.15778E+00 2.59905E-01 1.36210E+01
 -1       225-1.21783E+01 3.39072E+00 4.13104E+00 2.08922E+00-3.96334E-01 1.46240E+01
 -1       226-1.10882E+01 2.91360E+00 2.97511E+00 1.62527E+00-6.91668E-01 1.88655E+01
 -1       227-2.66275E+00 7.30904E-01 1.35501E+00 2.08692E+00-2.92829E-01 2.15388E+01
 -1       228-1.77755E+01 4.89592E+00 5.87802E+00 2.65978E+00 4.43679E-01 1.35829E+01
 -1       229 1.49767E+01-3.81032E+00-4.96203E+00 2.26016E+00-1.07395E+00 1.40753E+01
 -1       230 3.42012E+00-1.44354E+00-4.99844E-01 9.40979E-01-1.07213E+00 2.04243E+01
 -1       231-9.20725E+00 2.10338E+00 3.04649E+00 4.56638E-01 5.45588E-01 1.57034E+01
 -1       232-2.97244E+00 1.05558E+00 8.53953E-01 9.06939E-01 2.73263E-01 1.37595E+01
 -1       233-5.49730E+00 1.23153E+00 2.58292E+00 1.45273E+00 7.97499E-01 2.37922E+01
 -1       234 1.59633E+00-5.86637E-01-1.12210E+00 1.44885E+00-6.20224E-01 2.09726E+01
 -1       235 1.03911E+01-2.94508E+00-3.91183E+00 2.04828E+00 2.22303E-01 1.43185E+01
 -1       236 1.04204E+01-2.52640E+00-3.36123E+00 2.87492E+00 9.86849E-01 1.70897E+01
 -1       237-4.25270E+00 1.38065E+00 8.60966E-01 1.75759E+00-6.36725E-01 2.09895E+01
 -1       238-4.21150E-01 1.58697E-01 1.07149E+00 1.44224E+00 6.43290E-01 2.19507E+01
 -1       239 3.84697E+00-1.27874E+00-2.41310E+00-5.31962E-04 4.96500E-01 7.56690E-01
 -1       240 3.81014E+00-1.58386E+00-1.52509E+00 1.09209E+00-3.15978E-01 5.28636E+00
 -1       241 4.30261E+00-8.71444E-01-3.44746E+00 7.18266E-01 4.44521E-01 7.22634E+00
 -1       242 7.09230E+00-2.55583E+00-2.08086E+00 8.18745E-01-2.81039E-02 7.57671E+00
 -1       243 3.80324E+00-4.13918E-01-3.60975E+00-3.62451E-01 3.05839E-01 4.90694E+00
 -1       244 2.23689E+00-6.69977E-01-1.11415E+00 4.04593E-01 4.29805E-01 9.83115E+00
 -1       245 6.46278E+00-1.81900E+00-2.41666E+00 1.18668E-01 3.74026E-01 1.22011E+01
 -1       246 5.81900E+00-2.03128E+00-2.16472E+00-3.62289E-02 3.40425E-01 4.89082E+00
 -1       247 1.38842E+01-3.89977E+00-4.90654E+00-1.11766E-01 2.63444E-01 1.06367E+01
 -1       248-3.53349E+01 9.94098E+00 1.11252E+01 1.57465E+00 1.74486E+00 1.17151E+01
 -1       249-1.55471E+01 4.45432E+00 4.85692E+00 9.34484E-01 1.40002E+00 2.05191E+01
 -1       250-2.76205E+01 6.72756E+00 9.32661E+00 3.24865E+00 1.29760E-01 1.35419E+01
 -1       251-1.78722E+01 4.76005E+00 5.45088E+00 2.19061E-03 3.60753E-01 1.28919E+01
 -1       252-1.86544E+01 5.74867E+00 8.14904E-01 1.76281E+00 1.23836E+00 1.83900E+01
 -1       253-6.71004E+00 1.79109E+00 8.66396E-01 2.05711E+00 1.04831E+00 1.93383E+01
 -1       254-1.16898E+01 1.66512E+00 4.29897E-01 3.41902E+00 3.43514E-01 2.03247E+01
 -1       255-3.11471E+01 5.40996E+00 9.51146E+00 4.32025E+00 3.53964E-01 1.11634E+01
 -1       256-2.70030E+01 2.62704E+00 5.50420E+00 2.35643E+00 1.06749E-01 1.89846E+01
 -1       257 8.02025E-01-3.87171E-01-5.94316E-01 1.41364E+00 1.26418E+00 2.15141E+01
 -1       258-6.37171E-01-1.99389E-01 1.18979E-01 8.93497E-01 8.76797E-02 1.40660E+01
 -1       259-1.22673E+01 2.42823E+00 2.36252E+00 1.36434E+00-1.00974E-01 1.89992E+01
 -1       260 1.31730E+01-2.61482E+00-4.85045E-01-3.33997E-01 1.38643E+00 1.71742E+01
 -1       261 2.94901E+01-4.19011E+00-8.36257E+00-1.33770E+00-1.65945E-01 1.27442E+01
 -1       262 3.04084E+00-5.89220E-01-2.71022E+00 6.49092E-01-1.87961E-01 1.25354E+00
 -1       263-5.95084E+00 1.42492E+00 2.75549E+00 8.53291E-01 1.67900E-01 5.40994E+00
 -1       264-2.90734E+01 5.58015E+00 8.10409E+00-1.25069E+00 5.11708E-01 1.14857E+01
 -1       265 3.48842E+01-9.87613E+00-1.05034E+01 8.59097E-01-1.98029E+00 1.05628E+01
 -1       266-1.50377E+01 3.57136E+00 1.73238E+00-7.11147E-01-2.38505E-01 1.88542E+01
 -1       267-5.93339E+00 2.13815E+00 2.32214E+00-3.16482E-01-3.15129E-01 4.41738E+00
 -1       268 2.76155E+01-7.38744E+00-8.04242E+00 4.80892E-01 1.21707E+00 1.33876E+01
 -1       269-3.12228E+00-6.92702E-02 3.50657E+00 5.84447E-01 4.73436E-01 4.89000E+00
 -1       270 2.83590E+00-9.09235E-01-1.78302E+00 9.58215E-01-2.65059E-01 3.39090E+00
 -1       271 1.88783E+01-4.03192E+00-5.45794E+00 8.37778E-01-1.14616E+00 1.53199E+01
 -1       272 1.29309E+01-3.04561E+00-4.14327E+00 1.06491E+00 6.10673E-01 1.78908E+01
 -1       273 2.67209E+01-7.37502E+00-9.00388E+00 4.10139E-01-1.67136E+00 1.00912E+01
 -1       274-5.97138E+00 1.35656E+00 2.04309E+00 1.22197E+00-3.19275E-01 1.22909E+01
 -1       275-2.08142E+00 8.20265E-02 1.90039E+00 7.28418E-01 4.31212E-01 6.33288E+00
 -1       276-6.16245E+00 1.53748E+00 3.27329E-01 9.02095E-01-3.04336E-01 1.86990E+01
 -1       277-1.24633E+01 3.52811E+00 5.15268E+00 6.22091E-01-3.33272E-01 6.67925E+00
 -1       278 1.54095E+01-4.29973E+00-5.06794E+00 9.49873E-01 5.14354E-01 1.60721E+01
 -1       279-2.48847E+01 4.94504E+00 5.91828E+00 3.11316E-01 4.88335E-01 1.24194E+01
 -1       280 4.64298E+00-1.67357E+00-1.21753E-01 2.02846E+00 1.00745E+00 1.86019E+01
 -3
 9999
