    1C
    1UUSER                                                              
    1UDATE              17.september.2015                               
    1UTIME              15:02:24                                        
    1UHOST                                                              
    1UPGM               CalculiX                                        
    1UDIR                                                               
    1UDBN                                                               
    1UMAT    1STEEL                                                     
    2C                           280                                     1
 -1         1 0.00000E+00 0.00000E+00 0.00000E+00
 -1         2 0.00000E+00 0.00000E+00 1.00000E+01
 -1         3 0.00000E+00 1.00000E+01 0.00000E+00
 -1         4 0.00000E+00 1.00000E+01 1.00000E+01
 -1         5 1.00000E+01 0.00000E+00 0.00000E+00
 -1         6 1.00000E+01 0.00000E+00 1.00000E+01
 -1         7 1.00000E+01 1.00000E+01 0.00000E+00
 -1         8 1.00000E+01 1.00000E+01 1.00000E+01
 -1         9 0.00000E+00 0.00000E+00 5.00000E+00
 -1        10 0.00000E+00 0.00000E+00 2.50000E+00
 -1        11 0.00000E+00 0.00000E+00 7.50000E+00
 -1        12 0.00000E+00 5.00000E+00 0.00000E+00
 -1        13 0.00000E+00 2.50000E+00 0.00000E+00
 -1        14 0.00000E+00 7.50000E+00 0.00000E+00
 -1        15 0.00000E+00 1.00000E+01 5.00000E+00
 -1        16 0.00000E+00 1.00000E+01 2.50000E+00
 -1        17 0.00000E+00 1.00000E+01 7.50000E+00
 -1        18 0.00000E+00 5.00000E+00 1.00000E+01
 -1        19 0.00000E+00 2.50000E+00 1.00000E+01
 -1        20 0.00000E+00 7.50000E+00 1.00000E+01
 -1        21 1.00000E+01 0.00000E+00 5.00000E+00
 -1        22 1.00000E+01 0.00000E+00 2.50000E+00
 -1        23 1.00000E+01 0.00000E+00 7.50000E+00
 -1        24 1.00000E+01 5.00000E+00 0.00000E+00
 -1        25 1.00000E+01 2.50000E+00 0.00000E+00
 -1        26 1.00000E+01 7.50000E+00 0.00000E+00
 -1        27 1.00000E+01 1.00000E+01 5.00000E+00
 -1        28 1.00000E+01 1.00000E+01 2.50000E+00
 -1        29 1.00000E+01 1.00000E+01 7.50000E+00
 -1        30 1.00000E+01 5.00000E+00 1.00000E+01
 -1        31 1.00000E+01 2.50000E+00 1.00000E+01
 -1        32 1.00000E+01 7.50000E+00 1.00000E+01
 -1        33 5.00000E+00 0.00000E+00 0.00000E+00
 -1        34 2.50000E+00 0.00000E+00 0.00000E+00
 -1        35 7.50000E+00 0.00000E+00 0.00000E+00
 -1        36 5.00000E+00 0.00000E+00 1.00000E+01
 -1        37 2.50000E+00 0.00000E+00 1.00000E+01
 -1        38 7.50000E+00 0.00000E+00 1.00000E+01
 -1        39 5.00000E+00 1.00000E+01 0.00000E+00
 -1        40 2.50000E+00 1.00000E+01 0.00000E+00
 -1        41 7.50000E+00 1.00000E+01 0.00000E+00
 -1        42 5.00000E+00 1.00000E+01 1.00000E+01
 -1        43 2.50000E+00 1.00000E+01 1.00000E+01
 -1        44 7.50000E+00 1.00000E+01 1.00000E+01
 -1        45 0.00000E+00 5.00000E+00 5.00000E+00
 -1        46 0.00000E+00 2.50000E+00 7.50000E+00
 -1        47 0.00000E+00 2.50000E+00 2.50000E+00
 -1        48 0.00000E+00 7.50000E+00 7.50000E+00
 -1        49 0.00000E+00 7.50000E+00 2.50000E+00
 -1        50 0.00000E+00 1.25000E+00 8.75000E+00
 -1        51 0.00000E+00 1.25000E+00 6.25000E+00
 -1        52 0.00000E+00 2.50000E+00 5.00000E+00
 -1        53 0.00000E+00 3.75000E+00 6.25000E+00
 -1        54 0.00000E+00 1.25000E+00 3.75000E+00
 -1        55 0.00000E+00 1.25000E+00 1.25000E+00
 -1        56 0.00000E+00 3.75000E+00 3.75000E+00
 -1        57 0.00000E+00 3.75000E+00 1.25000E+00
 -1        58 0.00000E+00 5.00000E+00 2.50000E+00
 -1        59 0.00000E+00 6.25000E+00 1.25000E+00
 -1        60 0.00000E+00 8.75000E+00 1.25000E+00
 -1        61 0.00000E+00 6.25000E+00 3.75000E+00
 -1        62 0.00000E+00 3.75000E+00 8.75000E+00
 -1        63 0.00000E+00 5.00000E+00 7.50000E+00
 -1        64 0.00000E+00 8.75000E+00 6.25000E+00
 -1        65 0.00000E+00 8.75000E+00 8.75000E+00
 -1        66 0.00000E+00 6.25000E+00 6.25000E+00
 -1        67 0.00000E+00 7.50000E+00 5.00000E+00
 -1        68 0.00000E+00 6.25000E+00 8.75000E+00
 -1        69 0.00000E+00 8.75000E+00 3.75000E+00
 -1        70 1.00000E+01 5.00000E+00 5.00000E+00
 -1        71 1.00000E+01 2.50000E+00 7.50000E+00
 -1        72 1.00000E+01 7.50000E+00 7.50000E+00
 -1        73 1.00000E+01 7.50000E+00 2.50000E+00
 -1        74 1.00000E+01 2.50000E+00 2.50000E+00
 -1        75 1.00000E+01 6.25000E+00 8.75000E+00
 -1        76 1.00000E+01 8.75000E+00 8.75000E+00
 -1        77 1.00000E+01 8.75000E+00 6.25000E+00
 -1        78 1.00000E+01 5.00000E+00 7.50000E+00
 -1        79 1.00000E+01 6.25000E+00 6.25000E+00
 -1        80 1.00000E+01 7.50000E+00 5.00000E+00
 -1        81 1.00000E+01 6.25000E+00 1.25000E+00
 -1        82 1.00000E+01 8.75000E+00 1.25000E+00
 -1        83 1.00000E+01 8.75000E+00 3.75000E+00
 -1        84 1.00000E+01 6.25000E+00 3.75000E+00
 -1        85 1.00000E+01 5.00000E+00 2.50000E+00
 -1        86 1.00000E+01 3.75000E+00 1.25000E+00
 -1        87 1.00000E+01 1.25000E+00 1.25000E+00
 -1        88 1.00000E+01 1.25000E+00 3.75000E+00
 -1        89 1.00000E+01 3.75000E+00 3.75000E+00
 -1        90 1.00000E+01 2.50000E+00 5.00000E+00
 -1        91 1.00000E+01 3.75000E+00 8.75000E+00
 -1        92 1.00000E+01 1.25000E+00 8.75000E+00
 -1        93 1.00000E+01 3.75000E+00 6.25000E+00
 -1        94 1.00000E+01 1.25000E+00 6.25000E+00
 -1        95 5.00000E+00 0.00000E+00 5.00000E+00
 -1        96 7.50000E+00 0.00000E+00 7.50000E+00
 -1        97 7.50000E+00 0.00000E+00 2.50000E+00
 -1        98 2.50000E+00 0.00000E+00 2.50000E+00
 -1        99 2.50000E+00 0.00000E+00 7.50000E+00
 -1       100 1.25000E+00 0.00000E+00 1.25000E+00
 -1       101 1.25000E+00 0.00000E+00 3.75000E+00
 -1       102 2.50000E+00 0.00000E+00 5.00000E+00
 -1       103 3.75000E+00 0.00000E+00 3.75000E+00
 -1       104 3.75000E+00 0.00000E+00 6.25000E+00
 -1       105 1.25000E+00 0.00000E+00 6.25000E+00
 -1       106 1.25000E+00 0.00000E+00 8.75000E+00
 -1       107 6.25000E+00 0.00000E+00 6.25000E+00
 -1       108 6.25000E+00 0.00000E+00 8.75000E+00
 -1       109 5.00000E+00 0.00000E+00 7.50000E+00
 -1       110 7.50000E+00 0.00000E+00 5.00000E+00
 -1       111 8.75000E+00 0.00000E+00 6.25000E+00
 -1       112 8.75000E+00 0.00000E+00 8.75000E+00
 -1       113 6.25000E+00 0.00000E+00 3.75000E+00
 -1       114 8.75000E+00 0.00000E+00 3.75000E+00
 -1       115 5.00000E+00 0.00000E+00 2.50000E+00
 -1       116 6.25000E+00 0.00000E+00 1.25000E+00
 -1       117 8.75000E+00 0.00000E+00 1.25000E+00
 -1       118 3.75000E+00 0.00000E+00 1.25000E+00
 -1       119 3.75000E+00 0.00000E+00 8.75000E+00
 -1       120 5.00000E+00 1.00000E+01 5.00000E+00
 -1       121 7.50000E+00 1.00000E+01 2.50000E+00
 -1       122 2.50000E+00 1.00000E+01 2.50000E+00
 -1       123 7.50000E+00 1.00000E+01 7.50000E+00
 -1       124 2.50000E+00 1.00000E+01 7.50000E+00
 -1       125 6.25000E+00 1.00000E+01 8.75000E+00
 -1       126 6.25000E+00 1.00000E+01 6.25000E+00
 -1       127 5.00000E+00 1.00000E+01 7.50000E+00
 -1       128 8.75000E+00 1.00000E+01 8.75000E+00
 -1       129 3.75000E+00 1.00000E+01 8.75000E+00
 -1       130 3.75000E+00 1.00000E+01 6.25000E+00
 -1       131 1.25000E+00 1.00000E+01 8.75000E+00
 -1       132 6.25000E+00 1.00000E+01 1.25000E+00
 -1       133 5.00000E+00 1.00000E+01 2.50000E+00
 -1       134 6.25000E+00 1.00000E+01 3.75000E+00
 -1       135 8.75000E+00 1.00000E+01 1.25000E+00
 -1       136 8.75000E+00 1.00000E+01 3.75000E+00
 -1       137 7.50000E+00 1.00000E+01 5.00000E+00
 -1       138 1.25000E+00 1.00000E+01 3.75000E+00
 -1       139 2.50000E+00 1.00000E+01 5.00000E+00
 -1       140 3.75000E+00 1.00000E+01 3.75000E+00
 -1       141 1.25000E+00 1.00000E+01 1.25000E+00
 -1       142 3.75000E+00 1.00000E+01 1.25000E+00
 -1       143 8.75000E+00 1.00000E+01 6.25000E+00
 -1       144 1.25000E+00 1.00000E+01 6.25000E+00
 -1       145 5.00000E+00 5.00000E+00 0.00000E+00
 -1       146 2.50000E+00 7.50000E+00 0.00000E+00
 -1       147 7.50000E+00 7.50000E+00 0.00000E+00
 -1       148 7.50000E+00 2.50000E+00 0.00000E+00
 -1       149 2.50000E+00 2.50000E+00 0.00000E+00
 -1       150 1.25000E+00 3.75000E+00 0.00000E+00
 -1       151 1.25000E+00 1.25000E+00 0.00000E+00
 -1       152 2.50000E+00 5.00000E+00 0.00000E+00
 -1       153 1.25000E+00 6.25000E+00 0.00000E+00
 -1       154 3.75000E+00 6.25000E+00 0.00000E+00
 -1       155 3.75000E+00 3.75000E+00 0.00000E+00
 -1       156 1.25000E+00 8.75000E+00 0.00000E+00
 -1       157 3.75000E+00 1.25000E+00 0.00000E+00
 -1       158 3.75000E+00 8.75000E+00 0.00000E+00
 -1       159 5.00000E+00 7.50000E+00 0.00000E+00
 -1       160 6.25000E+00 8.75000E+00 0.00000E+00
 -1       161 6.25000E+00 6.25000E+00 0.00000E+00
 -1       162 8.75000E+00 8.75000E+00 0.00000E+00
 -1       163 8.75000E+00 6.25000E+00 0.00000E+00
 -1       164 7.50000E+00 5.00000E+00 0.00000E+00
 -1       165 8.75000E+00 3.75000E+00 0.00000E+00
 -1       166 6.25000E+00 3.75000E+00 0.00000E+00
 -1       167 6.25000E+00 1.25000E+00 0.00000E+00
 -1       168 5.00000E+00 2.50000E+00 0.00000E+00
 -1       169 8.75000E+00 1.25000E+00 0.00000E+00
 -1       170 5.00000E+00 5.00000E+00 1.00000E+01
 -1       171 7.50000E+00 7.50000E+00 1.00000E+01
 -1       172 7.50000E+00 2.50000E+00 1.00000E+01
 -1       173 2.50000E+00 7.50000E+00 1.00000E+01
 -1       174 2.50000E+00 2.50000E+00 1.00000E+01
 -1       175 3.75000E+00 8.75000E+00 1.00000E+01
 -1       176 1.25000E+00 8.75000E+00 1.00000E+01
 -1       177 3.75000E+00 6.25000E+00 1.00000E+01
 -1       178 5.00000E+00 7.50000E+00 1.00000E+01
 -1       179 6.25000E+00 8.75000E+00 1.00000E+01
 -1       180 8.75000E+00 8.75000E+00 1.00000E+01
 -1       181 6.25000E+00 6.25000E+00 1.00000E+01
 -1       182 6.25000E+00 1.25000E+00 1.00000E+01
 -1       183 6.25000E+00 3.75000E+00 1.00000E+01
 -1       184 5.00000E+00 2.50000E+00 1.00000E+01
 -1       185 8.75000E+00 1.25000E+00 1.00000E+01
 -1       186 8.75000E+00 3.75000E+00 1.00000E+01
 -1       187 7.50000E+00 5.00000E+00 1.00000E+01
 -1       188 1.25000E+00 6.25000E+00 1.00000E+01
 -1       189 2.50000E+00 5.00000E+00 1.00000E+01
 -1       190 3.75000E+00 1.25000E+00 1.00000E+01
 -1       191 3.75000E+00 3.75000E+00 1.00000E+01
 -1       192 1.25000E+00 1.25000E+00 1.00000E+01
 -1       193 1.25000E+00 3.75000E+00 1.00000E+01
 -1       194 8.75000E+00 6.25000E+00 1.00000E+01
 -1       195 3.75000E+00 6.25000E+00 6.25000E+00
 -1       196 6.25000E+00 3.75000E+00 3.75000E+00
 -1       197 1.25000E+00 1.25000E+00 2.50000E+00
 -1       198 2.50000E+00 1.25000E+00 3.75000E+00
 -1       199 4.37500E+00 1.87500E+00 3.12500E+00
 -1       200 5.62500E+00 1.87500E+00 4.37500E+00
 -1       201 3.12500E+00 3.12500E+00 3.12500E+00
 -1       202 6.25000E+00 7.50000E+00 1.25000E+00
 -1       203 7.50000E+00 8.75000E+00 1.25000E+00
 -1       204 6.87500E+00 6.87500E+00 3.12500E+00
 -1       205 6.87500E+00 5.62500E+00 1.87500E+00
 -1       206 5.62500E+00 4.37500E+00 1.87500E+00
 -1       207 8.75000E+00 7.50000E+00 3.75000E+00
 -1       208 8.75000E+00 8.75000E+00 2.50000E+00
 -1       209 7.50000E+00 6.25000E+00 8.75000E+00
 -1       210 8.75000E+00 7.50000E+00 8.75000E+00
 -1       211 8.75000E+00 3.75000E+00 7.50000E+00
 -1       212 8.75000E+00 2.50000E+00 8.75000E+00
 -1       213 3.75000E+00 2.50000E+00 8.75000E+00
 -1       214 2.50000E+00 1.25000E+00 8.75000E+00
 -1       215 1.25000E+00 2.50000E+00 1.25000E+00
 -1       216 2.50000E+00 3.75000E+00 1.25000E+00
 -1       217 8.75000E+00 7.50000E+00 6.25000E+00
 -1       218 8.75000E+00 8.75000E+00 7.50000E+00
 -1       219 7.50000E+00 7.50000E+00 5.00000E+00
 -1       220 5.62500E+00 6.87500E+00 4.37500E+00
 -1       221 8.12500E+00 4.37500E+00 4.37500E+00
 -1       222 7.50000E+00 5.00000E+00 7.50000E+00
 -1       223 6.87500E+00 3.12500E+00 6.87500E+00
 -1       224 5.62500E+00 4.37500E+00 6.87500E+00
 -1       225 5.00000E+00 2.50000E+00 7.50000E+00
 -1       226 3.12500E+00 3.12500E+00 6.87500E+00
 -1       227 4.37500E+00 3.12500E+00 5.62500E+00
 -1       228 4.37500E+00 5.62500E+00 8.12500E+00
 -1       229 2.50000E+00 5.00000E+00 2.50000E+00
 -1       230 3.12500E+00 4.37500E+00 4.37500E+00
 -1       231 5.62500E+00 8.12500E+00 6.87500E+00
 -1       232 6.87500E+00 5.62500E+00 5.62500E+00
 -1       233 4.37500E+00 8.12500E+00 5.62500E+00
 -1       234 2.50000E+00 2.50000E+00 5.00000E+00
 -1       235 5.00000E+00 7.50000E+00 2.50000E+00
 -1       236 4.37500E+00 5.62500E+00 3.12500E+00
 -1       237 1.87500E+00 5.62500E+00 5.62500E+00
 -1       238 5.00000E+00 5.00000E+00 5.00000E+00
 -1       239 8.75000E+00 2.50000E+00 1.25000E+00
 -1       240 8.12500E+00 4.37500E+00 1.87500E+00
 -1       241 8.12500E+00 3.12500E+00 3.12500E+00
 -1       242 6.87500E+00 3.12500E+00 1.87500E+00
 -1       243 8.75000E+00 1.25000E+00 2.50000E+00
 -1       244 8.12500E+00 1.87500E+00 4.37500E+00
 -1       245 6.87500E+00 1.87500E+00 3.12500E+00
 -1       246 7.50000E+00 1.25000E+00 1.25000E+00
 -1       247 5.62500E+00 1.87500E+00 1.87500E+00
 -1       248 2.50000E+00 8.75000E+00 8.75000E+00
 -1       249 3.12500E+00 8.12500E+00 6.87500E+00
 -1       250 3.12500E+00 6.87500E+00 8.12500E+00
 -1       251 4.37500E+00 8.12500E+00 8.12500E+00
 -1       252 1.25000E+00 8.75000E+00 7.50000E+00
 -1       253 1.87500E+00 8.12500E+00 5.62500E+00
 -1       254 1.87500E+00 6.87500E+00 6.87500E+00
 -1       255 1.25000E+00 7.50000E+00 8.75000E+00
 -1       256 1.87500E+00 5.62500E+00 8.12500E+00
 -1       257 3.12500E+00 8.12500E+00 4.37500E+00
 -1       258 6.87500E+00 1.87500E+00 5.62500E+00
 -1       259 1.87500E+00 4.37500E+00 6.87500E+00
 -1       260 1.25000E+00 8.75000E+00 2.50000E+00
 -1       261 1.25000E+00 7.50000E+00 1.25000E+00
 -1       262 8.75000E+00 7.50000E+00 1.25000E+00
 -1       263 7.50000E+00 1.25000E+00 8.75000E+00
 -1       264 1.25000E+00 2.50000E+00 8.75000E+00
 -1       265 2.50000E+00 1.25000E+00 1.25000E+00
 -1       266 1.25000E+00 1.25000E+00 7.50000E+00
 -1       267 7.50000E+00 8.75000E+00 8.75000E+00
 -1       268 2.50000E+00 8.75000E+00 1.25000E+00
 -1       269 8.75000E+00 1.25000E+00 7.50000E+00
 -1       270 8.75000E+00 6.25000E+00 2.50000E+00
 -1       271 1.25000E+00 6.25000E+00 2.50000E+00
 -1       272 3.12500E+00 6.87500E+00 3.12500E+00
 -1       273 3.75000E+00 2.50000E+00 1.25000E+00
 -1       274 6.25000E+00 1.25000E+00 7.50000E+00
 -1       275 8.75000E+00 2.50000E+00 6.25000E+00
 -1       276 1.25000E+00 2.50000E+00 6.25000E+00
 -1       277 6.25000E+00 7.50000E+00 8.75000E+00
 -1       278 3.75000E+00 8.75000E+00 2.50000E+00
 -1       279 2.50000E+00 3.75000E+00 8.75000E+00
 -1       280 1.25000E+00 7.50000E+00 3.75000E+00
 -3
    3C                           129                                     1
 -1       633    6    0    1
 -2        95        98        47       196       103       197       198       200       199       201
 -1       634    6    0    1
 -2       147       121       145       196       203       202       161       205       204       206
 -1       635    6    0    1
 -2        73        70        27       121        84        80        83       208       207       136
 -1       636    6    0    1
 -2        72       170        30       171       209       187        75       210       181       194
 -1       637    6    0    1
 -2         9        98        47        95       101       197        54       102       103       198
 -1       638    6    0    1
 -2       172        70        30        71       211        78       186       212        93        91
 -1       639    6    0    1
 -2       170        99        36       174       213       119       184       191       214       190
 -1       640    6    0    1
 -2        12        47       149       145        57       215       150       152       216       155
 -1       641    6    0    1
 -2        70        27       123        72        80       143       217        79        77       218
 -1       642    6    0    1
 -2        39       147       121       145       160       203       132       159       161       202
 -1       643    6    0    1
 -2        70       120       121       196       219       134       207       221       220       204
 -1       644    6    0    1
 -2        70       172       170       196       211       183       222       221       223       224
 -1       645    6    0    1
 -2        95        99       170       195       104       213       225       227       226       228
 -1       646    6    0    1
 -2       145        45        47       196       229        56       216       206       230       201
 -1       647    6    0    1
 -2        70       123       120       195       217       126       219       232       231       233
 -1       648    6    0    1
 -2        47        45        95       196        56       234       198       201       230       200
 -1       649    6    0    1
 -2       121       120       145       196       134       235       202       204       220       206
 -1       650    6    0    1
 -2       145        39       120       121       159       133       235       202       132       134
 -1       651    6    0    1
 -2        70       120        27       121       219       137        80       207       134       136
 -1       652    6    0    1
 -2         9        47        45        95        54        56        52       102       198       234
 -1       653    6    0    1
 -2        70        27       120       123        80       137       219       217       143       126
 -1       654    6    0    1
 -2        45        47        12       145        56        57        58       229       216       152
 -1       655    6    0    1
 -2       170        95        36        99       225       109       184       213       104       119
 -1       656    6    0    1
 -2       195        45       145       196       237       229       236       238       230       206
 -1       657    6    0    1
 -2        95        45       195       196       234       237       227       200       230       238
 -1       658    6    0    1
 -2       170        95       195       196       225       227       228       224       200       238
 -1       659    6    0    1
 -2        70       170       195       196       222       228       232       221       224       238
 -1       660    6    0    1
 -2       195       120        70       196       233       219       232       238       220       221
 -1       661    6    0    1
 -2       145       120       195       196       235       233       236       206       220       238
 -1       662    6    0    1
 -2        74        24       148       196        86       165       239       241       240       242
 -1       663    6    0    1
 -2        21        74        97       196        88       243       114       244       241       245
 -1       664    6    0    1
 -2       148        33        97       196       167       116       246       242       247       245
 -1       665    6    0    1
 -2       173       124        42       195       248       129       175       250       249       251
 -1       666    6    0    1
 -2        48        15       124       195        64       144       252       254       253       249
 -1       667    6    0    1
 -2        18        48       173       195        68       255       188       256       254       250
 -1       668    6    0    1
 -2        74        70        24       196        89        85        86       241       221       240
 -1       669    6    0    1
 -2       170        18       173       195       189       188       177       228       256       250
 -1       670    6    0    1
 -2        70        74        21       196        89        88        90       221       241       244
 -1       671    6    0    1
 -2       120       123        42       195       126       125       127       233       231       251
 -1       672    6    0    1
 -2       170       173        42       195       177       175       178       228       250       251
 -1       673    6    0    1
 -2        42       124       120       195       129       130       127       251       249       233
 -1       674    6    0    1
 -2        15       122       120       195       138       140       139       253       257       233
 -1       675    6    0    1
 -2       124        15       120       195       144       139       130       249       253       233
 -1       676    6    0    1
 -2        15        48        45       195        64        66        67       253       254       237
 -1       677    6    0    1
 -2        24       147       145       196       163       161       164       240       205       206
 -1       678    6    0    1
 -2        95        97        33       196       113       116       115       200       245       247
 -1       679    6    0    1
 -2        33        98        95       196       118       103       115       247       199       200
 -1       680    6    0    1
 -2        95        96        21       196       107       111       110       200       258       244
 -1       681    6    0    1
 -2        97        95        21       196       113       110       114       245       200       244
 -1       682    6    0    1
 -2       145        33       148       196       168       167       166       206       247       242
 -1       683    6    0    1
 -2        24       145       148       196       164       166       165       240       206       242
 -1       684    6    0    1
 -2        18        45        48       195        63        66        68       256       237       254
 -1       685    6    0    1
 -2        45        18        46       195        63        62        53       237       256       259
 -1       686    6    0    1
 -2        48       124       173       195       252       248       255       254       249       250
 -1       687    6    0    1
 -2       148        97        74       196       246       243       239       242       245       241
 -1       688    6    0    1
 -2        74        24         5       148        86        25        87       239       165       169
 -1       689    6    0    1
 -2         3        49       122        15        60       260       141        16        69       138
 -1       690    6    0    1
 -2       146        12        49         3       153        59       261       156        14        60
 -1       691    6    0    1
 -2        15       124         4        48       144       131        17        64       252        65
 -1       692    6    0    1
 -2       149         1        47        12       151        55       215       150        13        57
 -1       693    6    0    1
 -2       147         7        73        24       162        82       262       163        26        81
 -1       694    6    0    1
 -2        36       172         6        96       182       185        38       108       263       112
 -1       695    6    0    1
 -2        98        47         1         9       197        55       100       101        54        10
 -1       696    6    0    1
 -2         2       174        46        18       192       264        50        19       193        62
 -1       697    6    0    1
 -2         1       149        98        33       151       265       100        34       157       118
 -1       698    6    0    1
 -2        48       173         4        18       255       176        65        68       188        20
 -1       699    6    0    1
 -2        30        72       171         8        75       210       194        32        76       180
 -1       700    6    0    1
 -2        97        21         5        74       114        22       117       243        88        87
 -1       701    6    0    1
 -2         9        46         2        99        51        50        11       105       266       106
 -1       702    6    0    1
 -2         8       123       171        42       128       267       180        44       125       179
 -1       703    6    0    1
 -2        97         5        33       148       117        35       116       246       169       167
 -1       704    6    0    1
 -2        99       174         2        36       214       192       106       119       190        37
 -1       705    6    0    1
 -2       173       124         4        42       248       131       176       175       129        43
 -1       706    6    0    1
 -2         3       122       146        39       141       268       156        40       142       158
 -1       707    6    0    1
 -2         8        72       123        27        76       218       128        29        77       143
 -1       708    6    0    1
 -2        71       172         6        30       212       185        92        91       186        31
 -1       709    6    0    1
 -2       147       121         7        39       203       135       162       160       132        41
 -1       710    6    0    1
 -2        73       121        27         7       208       136        83        82       135        28
 -1       711    6    0    1
 -2        71         6        96        21        92       112       269        94        23       111
 -1       712    6    0    1
 -2       146        49       122         3       261       260       268       156        60       141
 -1       713    6    0    1
 -2         2        46       174        99        50       264       192       106       266       214
 -1       714    6    0    1
 -2       123       171        72         8       267       210       218       128       180        76
 -1       715    6    0    1
 -2         7        73       121       147        82       208       135       162       262       203
 -1       716    6    0    1
 -2       173         4       124        48       176       131       248       255        65       252
 -1       717    6    0    1
 -2        96       172         6        71       263       185       112       269       212        92
 -1       718    6    0    1
 -2        74         5        97       148        87       117       243       239       169       246
 -1       719    6    0    1
 -2         1        98       149        47       100       265       151        55       197       215
 -1       720    6    0    1
 -2       147       121        70        73       203       207       270       262       208        84
 -1       721    6    0    1
 -2       121       147        70       196       203       270       207       204       205       221
 -1       722    6    0    1
 -2       147        70        24        73       270        85       163       262        84        81
 -1       723    6    0    1
 -2        70       147        24       196       270       163        85       221       205       240
 -1       724    6    0    1
 -2       146       195        45       145       272       237       271       154       236       229
 -1       725    6    0    1
 -2        12        45       146        49        58       271       153        59        61       261
 -1       726    6    0    1
 -2       146        45        12       145       271        58       153       154       229       152
 -1       727    6    0    1
 -2        98        47       145       149       197       216       273       265       215       155
 -1       728    6    0    1
 -2       145        47        98       196       216       197       273       206       201       199
 -1       729    6    0    1
 -2        33        98       145       149       118       273       168       157       265       155
 -1       730    6    0    1
 -2       145        98        33       196       273       118       168       206       199       247
 -1       731    6    0    1
 -2        95       196       172        96       200       223       274       107       258       263
 -1       732    6    0    1
 -2       172       196        95       170       223       200       274       183       224       225
 -1       733    6    0    1
 -2        36        95       172        96       109       274       182       108       107       263
 -1       734    6    0    1
 -2       172        95        36       170       274       109       182       183       225       184
 -1       735    6    0    1
 -2        96        70       172        71       275       211       263       269        93       212
 -1       736    6    0    1
 -2       172        70        96       196       211       275       263       223       221       258
 -1       737    6    0    1
 -2        96        21        70        71       111        90       275       269        94        93
 -1       738    6    0    1
 -2        70        21        96       196        90       111       275       221       244       258
 -1       739    6    0    1
 -2        45       195        99        95       237       226       276       234       227       104
 -1       740    6    0    1
 -2        99       195        45        46       226       237       276       266       259        53
 -1       741    6    0    1
 -2         9        45        99        95        52       276       105       102       234       104
 -1       742    6    0    1
 -2        99        45         9        46       276        52       105       266        53        51
 -1       743    6    0    1
 -2       123       170        72       171       277       209       218       267       181       210
 -1       744    6    0    1
 -2        42       170       123       171       178       277       125       179       181       267
 -1       745    6    0    1
 -2       170        42       123       195       178       125       277       228       251       231
 -1       746    6    0    1
 -2       170        70       123        72       222       217       277       209        79       218
 -1       747    6    0    1
 -2       123        70       170       195       217       222       277       231       232       228
 -1       748    6    0    1
 -2       120       146       195       122       278       272       233       140       268       257
 -1       749    6    0    1
 -2       146       120       195       145       278       233       272       154       235       236
 -1       750    6    0    1
 -2        39       146       120       122       158       278       133       142       268       140
 -1       751    6    0    1
 -2       146        39       120       145       158       133       278       154       159       235
 -1       752    6    0    1
 -2        46        99       170       174       266       213       279       264       214       191
 -1       753    6    0    1
 -2       170        99        46       195       213       266       279       228       226       259
 -1       754    6    0    1
 -2        18        46       170       174        62       279       189       193       264       191
 -1       755    6    0    1
 -2       170        46        18       195       279        62       189       228       259       256
 -1       756    6    0    1
 -2        70        30       170       172        78       187       222       211       186       183
 -1       757    6    0    1
 -2       170        30        70        72       187        78       222       209        75        79
 -1       758    6    0    1
 -2       122        45       146       195       280       271       268       257       237       272
 -1       759    6    0    1
 -2       146        45       122        49       271       280       268       261        61       260
 -1       760    6    0    1
 -2       122        15        45       195       138        67       280       257       253       237
 -1       761    6    0    1
 -2        45        15       122        49        67       138       280        61        69       260
 -3
    1PSTEP                         1           1           1          
  100CL  101 1.000000000         280                     0    1           1
 -4  DISP        4    1
 -5  D1          1    2    1    0
 -5  D2          1    2    2    0
 -5  D3          1    2    3    0
 -5  ALL         1    2    0    0    1ALL
 -1         1 0.00000E+00 0.00000E+00 0.00000E+00
 -1         2 0.00000E+00 0.00000E+00 0.00000E+00
 -1         3 0.00000E+00 0.00000E+00 0.00000E+00
 -1         4 0.00000E+00 0.00000E+00 0.00000E+00
 -1         5 4.83525E-04-3.63959E-08-3.29387E-05
 -1         6 5.16418E-04-9.74830E-09-3.29111E-05
 -1         7 4.83522E-04 2.79698E-08-3.29506E-05
 -1         8 5.16414E-04 9.46573E-09-3.28907E-05
 -1         9 0.00000E+00 0.00000E+00 0.00000E+00
 -1        10 0.00000E+00 0.00000E+00 0.00000E+00
 -1        11 0.00000E+00 0.00000E+00 0.00000E+00
 -1        12 0.00000E+00 0.00000E+00 0.00000E+00
 -1        13 0.00000E+00 0.00000E+00 0.00000E+00
 -1        14 0.00000E+00 0.00000E+00 0.00000E+00
 -1        15 0.00000E+00 0.00000E+00 0.00000E+00
 -1        16 0.00000E+00 0.00000E+00 0.00000E+00
 -1        17 0.00000E+00 0.00000E+00 0.00000E+00
 -1        18 0.00000E+00 0.00000E+00 0.00000E+00
 -1        19 0.00000E+00 0.00000E+00 0.00000E+00
 -1        20 0.00000E+00 0.00000E+00 0.00000E+00
 -1        21 5.00033E-04 4.33916E-09-3.10295E-05
 -1        22 4.93228E-04 4.44134E-08-3.17838E-05
 -1        23 5.06779E-04-4.61127E-08-3.17701E-05
 -1        24 4.83477E-04 1.89619E-08-3.27790E-05
 -1        25 4.83369E-04 2.14200E-08-3.29906E-05
 -1        26 4.83427E-04-2.99934E-08-3.29507E-05
 -1        27 5.00031E-04-1.91794E-08-3.08890E-05
 -1        28 4.93265E-04-5.84233E-08-3.17747E-05
 -1        29 5.06753E-04 5.18795E-08-3.17395E-05
 -1        30 5.16488E-04 1.24487E-08-3.26430E-05
 -1        31 5.16530E-04-6.94117E-08-3.28496E-05
 -1        32 5.16572E-04 5.84800E-08-3.28355E-05
 -1        33 2.37875E-04-2.05249E-08-1.19016E-05
 -1        34 1.17662E-04 5.19609E-08-4.39342E-06
 -1        35 3.59774E-04-4.82415E-09-2.13361E-05
 -1        36 2.62235E-04 1.97079E-08-1.19466E-05
 -1        37 1.32373E-04-3.73330E-08-4.37317E-06
 -1        38 3.90203E-04 3.17937E-09-2.13457E-05
 -1        39 2.37754E-04 4.77221E-10-1.18963E-05
 -1        40 1.17638E-04-3.59002E-08-4.35076E-06
 -1        41 3.59747E-04 9.92200E-09-2.13238E-05
 -1        42 2.62120E-04-2.05498E-10-1.19177E-05
 -1        43 1.32358E-04 2.79192E-08-4.36005E-06
 -1        44 3.90179E-04-2.37755E-08-2.13267E-05
 -1        45 0.00000E+00 0.00000E+00 0.00000E+00
 -1        46 0.00000E+00 0.00000E+00 0.00000E+00
 -1        47 0.00000E+00 0.00000E+00 0.00000E+00
 -1        48 0.00000E+00 0.00000E+00 0.00000E+00
 -1        49 0.00000E+00 0.00000E+00 0.00000E+00
 -1        50 0.00000E+00 0.00000E+00 0.00000E+00
 -1        51 0.00000E+00 0.00000E+00 0.00000E+00
 -1        52 0.00000E+00 0.00000E+00 0.00000E+00
 -1        53 0.00000E+00 0.00000E+00 0.00000E+00
 -1        54 0.00000E+00 0.00000E+00 0.00000E+00
 -1        55 0.00000E+00 0.00000E+00 0.00000E+00
 -1        56 0.00000E+00 0.00000E+00 0.00000E+00
 -1        57 0.00000E+00 0.00000E+00 0.00000E+00
 -1        58 0.00000E+00 0.00000E+00 0.00000E+00
 -1        59 0.00000E+00 0.00000E+00 0.00000E+00
 -1        60 0.00000E+00 0.00000E+00 0.00000E+00
 -1        61 0.00000E+00 0.00000E+00 0.00000E+00
 -1        62 0.00000E+00 0.00000E+00 0.00000E+00
 -1        63 0.00000E+00 0.00000E+00 0.00000E+00
 -1        64 0.00000E+00 0.00000E+00 0.00000E+00
 -1        65 0.00000E+00 0.00000E+00 0.00000E+00
 -1        66 0.00000E+00 0.00000E+00 0.00000E+00
 -1        67 0.00000E+00 0.00000E+00 0.00000E+00
 -1        68 0.00000E+00 0.00000E+00 0.00000E+00
 -1        69 0.00000E+00 0.00000E+00 0.00000E+00
 -1        70 4.99857E-04-2.32617E-08-3.11391E-05
 -1        71 5.06828E-04-3.48270E-08-3.17190E-05
 -1        72 5.06779E-04 3.57624E-08-3.17937E-05
 -1        73 4.93215E-04-2.68523E-08-3.17234E-05
 -1        74 4.93267E-04 6.94427E-09-3.17662E-05
 -1        75 5.11245E-04 2.65091E-08-3.22991E-05
 -1        76 5.11065E-04 4.61455E-08-3.24604E-05
 -1        77 5.03175E-04 1.93684E-09-3.11522E-05
 -1        78 5.06857E-04-1.12467E-08-3.18431E-05
 -1        79 5.03098E-04 9.92054E-09-3.13860E-05
 -1        80 4.99971E-04-2.16151E-08-3.10053E-05
 -1        81 4.88801E-04-1.72519E-08-3.24020E-05
 -1        82 4.88933E-04-3.14593E-08-3.24864E-05
 -1        83 4.96845E-04-3.03239E-08-3.11584E-05
 -1        84 4.96803E-04-4.54864E-09-3.12688E-05
 -1        85 4.93179E-04 8.49084E-09-3.18993E-05
 -1        86 4.88883E-04 1.68457E-09-3.24334E-05
 -1        87 4.88914E-04 1.44750E-08-3.25000E-05
 -1        88 4.96830E-04 1.70439E-08-3.12421E-05
 -1        89 4.96803E-04-8.83207E-09-3.12480E-05
 -1        90 4.99971E-04-7.94565E-09-3.10186E-05
 -1        91 5.11261E-04-3.85325E-08-3.23147E-05
 -1        92 5.11063E-04-4.97262E-08-3.24423E-05
 -1        93 5.03155E-04-1.09037E-09-3.13008E-05
 -1        94 5.03187E-04-7.38285E-09-3.11912E-05
 -1        95 2.50041E-04-6.56791E-09-1.19759E-05
 -1        96 3.81412E-04-2.36499E-08-2.13708E-05
 -1        97 3.68566E-04 1.15333E-08-2.13459E-05
 -1        98 1.22110E-04 3.10236E-09-4.46392E-06
 -1        99 1.27875E-04 3.56813E-09-4.44999E-06
 -1       100 6.00759E-05 1.05850E-08-1.71483E-06
 -1       101 6.18203E-05-3.40727E-09-1.89600E-06
 -1       102 1.24990E-04-4.61713E-09-4.54829E-06
 -1       103 1.85557E-04-5.53878E-09-7.90578E-06
 -1       104 1.89446E-04 6.12368E-09-7.92467E-06
 -1       105 6.31869E-05 3.94012E-09-1.87895E-06
 -1       106 6.49316E-05-7.44517E-09-1.69800E-06
 -1       107 3.15286E-04-5.53727E-09-1.65044E-05
 -1       108 3.22100E-04-1.86631E-08-1.64380E-05
 -1       109 2.55067E-04 5.79039E-09-1.19210E-05
 -1       110 3.74947E-04-7.04307E-09-2.13092E-05
 -1       111 4.40668E-04 3.49554E-09-2.63237E-05
 -1       112 4.48415E-04-1.41883E-08-2.67170E-05
 -1       113 3.09720E-04-7.75946E-09-1.64991E-05
 -1       114 4.34362E-04 1.44205E-09-2.63281E-05
 -1       115 2.44827E-04 8.12640E-10-1.19015E-05
 -1       116 3.02946E-04 1.23593E-09-1.64088E-05
 -1       117 4.26554E-04-2.94037E-09-2.67186E-05
 -1       118 1.80747E-04 9.42480E-09-7.86297E-06
 -1       119 1.94268E-04 1.20830E-08-7.85258E-06
 -1       120 2.49975E-04 1.11542E-08-1.19224E-05
 -1       121 3.68601E-04-2.13092E-08-2.13551E-05
 -1       122 1.22105E-04 2.14652E-09-4.44112E-06
 -1       123 3.81422E-04 6.97353E-10-2.13479E-05
 -1       124 1.27909E-04-4.57595E-09-4.44750E-06
 -1       125 3.22071E-04-1.10705E-08-1.64112E-05
 -1       126 3.15307E-04 1.66142E-08-1.64845E-05
 -1       127 2.55178E-04 1.56800E-10-1.19407E-05
 -1       128 4.48411E-04-4.09964E-09-2.66868E-05
 -1       129 1.94225E-04-3.89220E-09-7.83612E-06
 -1       130 1.89426E-04 4.75689E-09-7.90777E-06
 -1       131 6.49318E-05 3.93156E-09-1.69650E-06
 -1       132 3.02887E-04-1.01909E-08-1.64035E-05
 -1       133 2.44918E-04 2.62695E-10-1.18970E-05
 -1       134 3.09716E-04-1.85147E-08-1.64767E-05
 -1       135 4.26571E-04-2.64034E-09-2.67169E-05
 -1       136 4.34416E-04-9.81127E-09-2.63022E-05
 -1       137 3.75017E-04 2.62226E-09-2.14158E-05
 -1       138 6.17766E-05-4.36607E-09-1.87164E-06
 -1       139 1.25028E-04 9.63576E-10-4.55967E-06
 -1       140 1.85543E-04 9.51708E-09-7.89501E-06
 -1       141 6.00682E-05-7.15700E-09-1.69727E-06
 -1       142 1.80748E-04 1.54095E-08-7.81611E-06
 -1       143 4.40626E-04 2.36244E-09-2.63011E-05
 -1       144 6.32051E-05-1.82720E-09-1.86493E-06
 -1       145 2.37827E-04 4.83602E-09-1.18199E-05
 -1       146 1.17736E-04-1.65054E-08-4.31499E-06
 -1       147 3.59770E-04-6.11759E-09-2.13131E-05
 -1       148 3.59719E-04 1.09974E-08-2.13217E-05
 -1       149 1.17609E-04 3.89564E-08-4.36796E-06
 -1       150 5.83964E-05 7.74682E-09-1.67639E-06
 -1       151 5.84250E-05 3.46925E-08-1.64301E-06
 -1       152 1.17969E-04-2.38792E-09-4.25556E-06
 -1       153 5.85557E-05 1.24042E-09-1.67461E-06
 -1       154 1.77600E-04-7.91797E-09-7.74064E-06
 -1       155 1.77489E-04 3.23308E-08-7.77015E-06
 -1       156 5.84462E-05-3.02651E-08-1.61900E-06
 -1       157 1.77469E-04 1.70331E-08-7.82006E-06
 -1       158 1.77483E-04 4.09758E-10-7.81120E-06
 -1       159 2.37804E-04 1.76767E-09-1.18358E-05
 -1       160 2.98560E-04-5.33065E-09-1.63795E-05
 -1       161 2.98594E-04 4.10541E-09-1.63651E-05
 -1       162 4.21354E-04 2.06015E-08-2.67755E-05
 -1       163 4.21418E-04-9.77320E-09-2.67918E-05
 -1       164 3.59771E-04 2.63591E-09-2.13415E-05
 -1       165 4.21342E-04 2.08419E-08-2.67647E-05
 -1       166 2.98555E-04 4.76134E-09-1.63624E-05
 -1       167 2.98599E-04 4.24251E-09-1.63853E-05
 -1       168 2.37824E-04-6.53487E-09-1.18662E-05
 -1       169 4.21349E-04-1.84253E-08-2.67758E-05
 -1       170 2.62290E-04-1.17485E-08-1.18701E-05
 -1       171 3.90193E-04-3.47856E-08-2.13948E-05
 -1       172 3.90079E-04 9.64663E-09-2.13402E-05
 -1       173 1.32422E-04-1.44469E-09-4.35053E-06
 -1       174 1.32426E-04-2.37890E-08-4.35053E-06
 -1       175 1.97527E-04-7.51068E-09-7.83783E-06
 -1       176 6.65891E-05 2.32209E-08-1.61379E-06
 -1       177 1.97591E-04 4.22742E-09-7.78219E-06
 -1       178 2.62210E-04 3.98098E-09-1.18847E-05
 -1       179 3.26381E-04-2.05510E-08-1.64179E-05
 -1       180 4.53598E-04-2.23344E-08-2.67437E-05
 -1       181 3.26431E-04-2.62864E-08-1.64645E-05
 -1       182 3.26377E-04-1.81114E-09-1.64326E-05
 -1       183 3.26361E-04 5.83147E-09-1.64258E-05
 -1       184 2.62239E-04-3.18458E-09-1.19260E-05
 -1       185 4.53575E-04 7.51217E-09-2.67584E-05
 -1       186 4.53512E-04-1.09960E-08-2.67370E-05
 -1       187 3.90119E-04-2.29341E-11-2.14410E-05
 -1       188 6.65412E-05-1.51508E-08-1.64445E-06
 -1       189 1.32096E-04 1.71847E-08-4.30249E-06
 -1       190 1.97596E-04-3.77846E-09-7.82174E-06
 -1       191 1.97584E-04-2.07569E-08-7.77441E-06
 -1       192 6.65843E-05-2.58664E-08-1.62529E-06
 -1       193 6.66153E-05 1.11069E-08-1.66528E-06
 -1       194 4.53578E-04-6.78666E-09-2.67541E-05
 -1       195 1.89327E-04-8.29874E-09-7.89623E-06
 -1       196 3.09803E-04 9.78618E-09-1.65193E-05
 -1       197 6.09933E-05-9.03778E-10-1.82179E-06
 -1       198 1.23650E-04-4.12034E-09-4.55227E-06
 -1       199 2.15357E-04-2.49055E-10-9.80907E-06
 -1       200 2.80005E-04-1.94800E-09-1.41911E-05
 -1       201 1.53707E-04 2.08660E-09-6.12283E-06
 -1       202 3.02900E-04 2.38817E-09-1.63823E-05
 -1       203 3.64541E-04-9.71708E-09-2.13312E-05
 -1       204 3.39266E-04-6.63431E-10-1.88798E-05
 -1       205 3.35653E-04 4.12207E-09-1.88126E-05
 -1       206 2.74004E-04 5.92072E-09-1.41096E-05
 -1       207 4.34314E-04-9.35322E-09-2.62993E-05
 -1       208 4.30829E-04-1.21254E-08-2.65091E-05
 -1       209 3.85416E-04-4.19427E-09-2.14061E-05
 -1       210 4.48482E-04 5.63389E-09-2.66263E-05
 -1       211 4.44346E-04 1.29808E-09-2.64529E-05
 -1       212 4.48448E-04-2.73970E-08-2.66628E-05
 -1       213 1.94270E-04 1.05066E-08-7.82333E-06
 -1       214 1.29813E-04-6.42295E-09-4.39033E-06
 -1       215 5.99907E-05 1.92101E-09-1.72549E-06
 -1       216 1.20204E-04 1.41768E-08-4.38361E-06
 -1       217 4.40670E-04-3.54236E-09-2.62812E-05
 -1       218 4.44191E-04 5.81911E-09-2.64826E-05
 -1       219 3.75012E-04-4.35863E-09-2.12845E-05
 -1       220 2.80008E-04 2.27359E-09-1.41780E-05
 -1       221 4.04699E-04-6.44742E-09-2.37418E-05
 -1       222 3.81513E-04 4.34175E-09-2.13381E-05
 -1       223 3.48270E-04-1.57255E-08-1.88753E-05
 -1       224 2.85260E-04-1.84972E-08-1.41678E-05
 -1       225 2.55181E-04 2.77524E-09-1.19128E-05
 -1       226 1.58787E-04-1.87288E-09-6.10230E-06
 -1       227 2.19780E-04 3.34097E-10-9.88632E-06
 -1       228 2.24845E-04-1.16070E-08-9.78202E-06
 -1       229 1.22086E-04-9.15600E-09-4.47626E-06
 -1       230 1.55398E-04-3.72444E-09-6.16746E-06
 -1       231 2.85290E-04-1.26720E-09-1.41923E-05
 -1       232 3.45256E-04 4.48209E-10-1.88356E-05
 -1       233 2.19791E-04 2.67778E-09-9.84792E-06
 -1       234 1.24972E-04-7.25648E-11-4.58378E-06
 -1       235 2.44804E-04-2.88059E-09-1.19130E-05
 -1       236 2.15370E-04 1.96372E-08-9.84585E-06
 -1       237 9.41894E-05-1.16876E-09-3.13223E-06
 -1       238 2.50005E-04 1.22836E-09-1.19828E-05
 -1       239 4.26542E-04 6.80587E-10-2.66963E-05
 -1       240 3.97678E-04 2.43758E-10-2.39473E-05
 -1       241 4.01495E-04 9.56544E-09-2.38697E-05
 -1       242 3.35725E-04 3.53378E-10-1.88399E-05
 -1       243 4.30819E-04 8.77843E-09-2.64922E-05
 -1       244 4.04708E-04 1.34901E-09-2.37915E-05
 -1       245 3.39256E-04 2.01488E-10-1.88802E-05
 -1       246 3.64545E-04 1.08323E-08-2.13391E-05
 -1       247 2.74058E-04 3.73302E-09-1.40951E-05
 -1       248 1.29828E-04 3.53285E-11-4.37910E-06
 -1       249 1.58779E-04-2.95602E-09-6.09430E-06
 -1       250 1.60836E-04-9.75093E-10-6.01475E-06
 -1       251 2.24794E-04-6.51586E-09-9.83475E-06
 -1       252 6.40261E-05-9.45436E-10-1.78141E-06
 -1       253 9.42683E-05-5.21930E-09-3.12254E-06
 -1       254 9.53629E-05-8.40333E-09-3.03487E-06
 -1       255 6.50027E-05 8.94385E-10-1.67067E-06
 -1       256 9.66271E-05-1.02599E-08-2.93418E-06
 -1       257 1.55475E-04-3.81110E-09-6.14462E-06
 -1       258 3.45127E-04 2.78967E-11-1.88713E-05
 -1       259 9.53841E-05-1.27390E-09-3.06203E-06
 -1       260 6.09822E-05-3.48926E-09-1.77906E-06
 -1       261 5.99496E-05 1.18813E-08-1.70090E-06
 -1       262 4.26567E-04-1.27998E-08-2.66990E-05
 -1       263 3.85431E-04-1.79756E-08-2.13553E-05
 -1       264 6.50194E-05 1.33314E-09-1.70891E-06
 -1       265 1.20206E-04 1.87243E-08-4.40531E-06
 -1       266 6.40112E-05-3.40409E-09-1.79841E-06
 -1       267 3.85418E-04-4.35932E-09-2.13500E-05
 -1       268 1.20186E-04-3.28956E-09-4.36602E-06
 -1       269 4.44199E-04-1.27171E-08-2.65069E-05
 -1       270 4.30763E-04 7.03814E-09-2.65066E-05
 -1       271 6.09727E-05-1.26164E-08-1.77037E-06
 -1       272 1.53712E-04 9.05510E-09-6.10220E-06
 -1       273 1.80798E-04 6.69099E-09-7.81508E-06
 -1       274 3.18441E-04-7.91595E-09-1.64673E-05
 -1       275 4.40640E-04-3.88976E-09-2.63200E-05
 -1       276 6.32285E-05-3.44096E-09-1.87129E-06
 -1       277 3.22048E-04-9.52061E-09-1.64560E-05
 -1       278 1.83391E-04 4.40101E-09-7.85551E-06
 -1       279 1.29801E-04-8.34447E-09-4.35601E-06
 -1       280 6.18319E-05-5.73692E-09-1.85774E-06
 -3
    1PSTEP                         2           1           1          
  100CL  101 1.000000000         280                     0    1           1
 -4  STRESS      6    1
 -5  SXX         1    4    1    1
 -5  SYY         1    4    2    2
 -5  SZZ         1    4    3    3
 -5  SXY         1    4    1    2
 -5  SYZ         1    4    2    3
 -5  SZX         1    4    3    1
 -1         1 9.35615E+00 3.18357E-04 6.89947E-03-1.02357E-02 6.22431E-03-6.87702E-02
 -1         2 1.06453E+01-3.66422E-04-6.70766E-03 1.05852E-02 6.43781E-03-6.70628E-02
 -1         3 9.35440E+00 1.38814E-03 6.23857E-03 1.13624E-02-6.07623E-03-6.68868E-02
 -1         4 1.06456E+01-1.50801E-03-6.11559E-03-1.11002E-02-7.00919E-03-6.53108E-02
 -1         5 9.96343E+00 2.50993E-03 6.28008E-02 1.61795E-03-8.91980E-04-3.80902E-02
 -1         6 1.00317E+01-3.75259E-03-6.12400E-02-5.33541E-03 1.58281E-03-3.71762E-02
 -1         7 9.96813E+00 3.41403E-03 6.20554E-02-4.79380E-03-1.37977E-03-3.65638E-02
 -1         8 1.00337E+01-2.75982E-03-5.94565E-02 4.76261E-03-2.00280E-03-3.85397E-02
 -1         9 9.99716E+00 1.43750E-04 7.23881E-04-1.47875E-03 2.69088E-04-1.25836E-01
 -1        10 9.73446E+00 3.93592E-09 7.93596E-08 4.50101E-04 1.02363E-08-1.10309E-01
 -1        11 1.02689E+01 1.44690E-09-7.92626E-08-4.23106E-04 6.84760E-09-1.08155E-01
 -1        12 9.33351E+00 3.92492E-04-3.51470E-03 3.49243E-03-3.00630E-04-9.24038E-02
 -1        13 9.28259E+00 1.18033E-08 5.76422E-08 1.83689E-03 1.57647E-08-9.08322E-02
 -1        14 9.30131E+00 1.38007E-08 4.73920E-08-1.66173E-03-2.37405E-08-9.08889E-02
 -1        15 1.00039E+01 1.84889E-04 5.05759E-04-2.23148E-03-6.05606E-04-1.23510E-01
 -1        16 9.72668E+00 1.99070E-09 7.63821E-08-1.00768E-03 1.75167E-09-1.07867E-01
 -1        17 1.02691E+01-1.75008E-09-7.37768E-08 3.51368E-04-1.56427E-09-1.07014E-01
 -1        18 1.06219E+01-1.96328E-03 5.14887E-03-3.20764E-04 2.23230E-03-7.35755E-02
 -1        19 1.07177E+01-1.61959E-08-5.57361E-08-2.29205E-04 1.25760E-08-8.92242E-02
 -1        20 1.07070E+01-1.68084E-08-3.63988E-08 7.03379E-04-8.09083E-09-8.66371E-02
 -1        21 1.00089E+01 5.09983E-04 2.94627E-03-3.03554E-03 3.70411E-03-1.48821E-01
 -1        22 9.99750E+00-1.33636E-03 7.63670E-02 2.91956E-03-5.84487E-03-1.01990E-01
 -1        23 1.00024E+01 1.24310E-03-7.52617E-02-8.37727E-03-1.78654E-03-1.04297E-01
 -1        24 9.96551E+00-3.18039E-03 5.04889E-02-2.85996E-04 1.07235E-03-3.69059E-02
 -1        25 9.96593E+00 2.21430E-03 5.91545E-02 6.57499E-04 2.84349E-03-3.97693E-02
 -1        26 9.96630E+00 3.60311E-04 5.70304E-02-1.65966E-03-4.79431E-03-4.18456E-02
 -1        27 1.00002E+01 5.92478E-04 1.77418E-03-2.76112E-04-1.97613E-03-1.43222E-01
 -1        28 9.99463E+00-1.25897E-03 8.24637E-02-5.71099E-03 2.93663E-03-1.01269E-01
 -1        29 1.00058E+01 3.07998E-03-8.00662E-02 5.17027E-03 3.07387E-03-1.01962E-01
 -1        30 1.00436E+01 6.62698E-03-5.64715E-02 1.90336E-03 1.63346E-03-4.51061E-02
 -1        31 1.00335E+01 8.87884E-04-5.44877E-02-3.43069E-03 5.53062E-03-4.52557E-02
 -1        32 1.00349E+01-1.19321E-04-5.70042E-02 4.57763E-03-4.21993E-03-4.33424E-02
 -1        33 9.69483E+00 8.21638E-04-4.14805E-03 1.24330E-03 9.99622E-05-1.44088E-02
 -1        34 9.51488E+00-2.33314E-03 3.67539E-03-3.67712E-03 4.90852E-03-2.70038E-02
 -1        35 9.82590E+00-1.00347E-04 1.46898E-02-3.20038E-03 4.59917E-03-1.33264E-02
 -1        36 1.03027E+01-9.95508E-04 4.57431E-03-1.05762E-03-2.66188E-03-9.33170E-03
 -1        37 1.04893E+01 2.34489E-03-5.47773E-03 3.26224E-03 4.22344E-03-2.53701E-02
 -1        38 1.01672E+01-7.66648E-04-1.44792E-02 3.06422E-03 5.26587E-03-1.47155E-02
 -1        39 9.69040E+00-2.87189E-04-6.06932E-03-1.01324E-03 3.34151E-03-9.51058E-03
 -1        40 9.51007E+00-2.26851E-03 5.12400E-03 1.24942E-03-7.34299E-04-2.30137E-02
 -1        41 9.83063E+00-2.07344E-04 1.48323E-02 3.49480E-03-4.50492E-03-1.37699E-02
 -1        42 1.03066E+01 7.26297E-04 6.46567E-03-6.96427E-04 3.05880E-03-1.71777E-02
 -1        43 1.04847E+01 1.82962E-03-4.89714E-03-1.43177E-03-3.00753E-03-2.35487E-02
 -1        44 1.01717E+01 6.45144E-04-1.67624E-02-5.37574E-03-5.64786E-03-1.61848E-02
 -1        45 1.00057E+01-7.96380E-05-3.78534E-04 3.05847E-03 1.96481E-03-1.26796E-01
 -1        46 1.02563E+01-3.52545E-05 7.63302E-03 3.28777E-03-1.82275E-03-1.16346E-01
 -1        47 9.75224E+00 9.24135E-04-1.59393E-02-5.29927E-03-2.58557E-03-1.16280E-01
 -1        48 1.02385E+01 3.13838E-04 9.28634E-03 1.05349E-03 1.38238E-03-1.11106E-01
 -1        49 9.75535E+00-1.06846E-03-2.48655E-03-6.29017E-04-1.77755E-03-1.04861E-01
 -1        50 1.04316E+01-1.52616E-07 2.99940E-03 4.12442E-03 1.49969E-03-9.20778E-02
 -1        51 1.01216E+01 2.34006E-09-7.32325E-08-9.98343E-05 3.38599E-09-1.16188E-01
 -1        52 9.99560E+00 8.28342E-10 2.49726E-03-7.17532E-05-1.55173E-05-1.24320E-01
 -1        53 1.01258E+01 3.12543E-04-1.68712E-03-7.37636E-04-6.87246E-04-1.18289E-01
 -1        54 9.88673E+00 1.67225E-04-3.75909E-03 1.06893E-03-1.79595E-03-1.21254E-01
 -1        55 9.56991E+00 2.40148E-04-3.20376E-03-4.36069E-03 1.48188E-03-9.41949E-02
 -1        56 9.87397E+00 7.02415E-05-3.96349E-03-2.34268E-03 1.94666E-03-1.23215E-01
 -1        57 9.53812E+00 7.73125E-04-7.82521E-03 1.24378E-03-3.52610E-03-1.04001E-01
 -1        58 9.69596E+00 2.05749E-04 9.24131E-08 1.94280E-03 3.29232E-03-1.09582E-01
 -1        59 9.54186E+00-7.95720E-10 4.46686E-08 1.70993E-03-1.50806E-08-9.74407E-02
 -1        60 9.56196E+00-4.23482E-05-2.48940E-03 5.39775E-03-1.26594E-03-9.04546E-02
 -1        61 9.90517E+00-4.75131E-04-2.73236E-03-4.01171E-03-1.60378E-03-1.13100E-01
 -1        62 1.04428E+01-1.04751E-03 6.62203E-03-7.39275E-03-2.78732E-03-9.76797E-02
 -1        63 1.02562E+01 3.12299E-09-8.67539E-08-3.88219E-04-3.95842E-09-1.12974E-01
 -1        64 1.01272E+01 1.86585E-04 1.60851E-03-8.49724E-04 8.97600E-04-1.16513E-01
 -1        65 1.04306E+01-5.21701E-04 3.86593E-03-3.82858E-03-1.67216E-03-8.95003E-02
 -1        66 1.01214E+01 2.06505E-09-8.39027E-08-2.89207E-04 1.43938E-09-1.18344E-01
 -1        67 1.00064E+01 7.82542E-10-1.15777E-03-4.42191E-04 1.93678E-04-1.22586E-01
 -1        68 1.04149E+01-1.23472E-04 6.63791E-03 6.25897E-03 3.25726E-03-9.28607E-02
 -1        69 9.87292E+00 6.95104E-10 7.57010E-08-7.14265E-04 2.74001E-09-1.14410E-01
 -1        70 9.98020E+00-3.07379E-04-1.71931E-03 4.24378E-05 1.92236E-03-1.56568E-01
 -1        71 9.98029E+00 1.16480E-03-1.03016E-01 7.10557E-03 7.95611E-04-1.23253E-01
 -1        72 9.97446E+00 6.07280E-04-9.08739E-02-6.02469E-03-2.09514E-03-1.29374E-01
 -1        73 1.00170E+01-3.12758E-03 1.12983E-01 3.88029E-03-3.06969E-03-1.25256E-01
 -1        74 1.00125E+01-2.53160E-03 1.05120E-01 1.26557E-03-8.85363E-04-1.20050E-01
 -1        75 1.00050E+01 2.95977E-03-7.26048E-02-1.29707E-03-1.78405E-03-8.87350E-02
 -1        76 1.00035E+01-1.44335E-03-8.50240E-02 7.02910E-04-1.69865E-03-8.83392E-02
 -1        77 9.98211E+00 1.53656E-03-7.34940E-02-3.84396E-03 2.40488E-03-1.31324E-01
 -1        78 9.97079E+00 3.08609E-03-6.01542E-02-2.27785E-03 2.67790E-04-1.18905E-01
 -1        79 9.95382E+00 1.05786E-03-5.89180E-02 5.07491E-04 5.10775E-03-1.45605E-01
 -1        80 9.99754E+00 1.63293E-04-2.40475E-03 2.69606E-03 5.44946E-03-1.39218E-01
 -1        81 1.00014E+01-5.47299E-03 9.67491E-02 3.84148E-03-5.24617E-03-9.88505E-02
 -1        82 9.99449E+00 1.19548E-03 9.55954E-02-1.64764E-03-2.88668E-03-8.50510E-02
 -1        83 1.00175E+01-3.26646E-03 7.66202E-02 3.90187E-03-2.99527E-03-1.31329E-01
 -1        84 1.00228E+01-1.00303E-03 6.63242E-02-1.39116E-03 9.43219E-03-1.34277E-01
 -1        85 9.99762E+00-2.33241E-04 6.55965E-02-5.69913E-03 1.88380E-03-1.14549E-01
 -1        86 9.99481E+00-9.17460E-04 8.12402E-02-8.37741E-04-8.31115E-04-7.70412E-02
 -1        87 9.99364E+00-1.05832E-04 9.48127E-02 2.34574E-03 1.27876E-03-8.78661E-02
 -1        88 1.00188E+01-1.90474E-03 7.06392E-02-2.53951E-03 4.79439E-03-1.37437E-01
 -1        89 1.00044E+01-1.45760E-03 7.29744E-02 1.98341E-03-1.18819E-02-1.45516E-01
 -1        90 1.00028E+01-1.10403E-03-1.30429E-02-3.56432E-03-1.81759E-03-1.39404E-01
 -1        91 9.99909E+00 6.43332E-03-8.74376E-02 4.81678E-03 5.43601E-03-1.00035E-01
 -1        92 1.00031E+01-2.81998E-03-9.05863E-02 8.75638E-05 1.98108E-03-8.47760E-02
 -1        93 9.97550E+00-1.26129E-03-6.17419E-02-2.16432E-03-8.76720E-03-1.26283E-01
 -1        94 9.97597E+00 2.17573E-03-6.78615E-02 3.88615E-03 3.69545E-03-1.34165E-01
 -1        95 1.00018E+01 1.73882E-04-8.93526E-04-3.23836E-03 1.26432E-03-1.70827E-01
 -1        96 1.00532E+01 3.14344E-04 4.29295E-03 3.35317E-03-2.06370E-03-1.11689E-01
 -1        97 9.94703E+00-4.47312E-04-9.21705E-03 1.19540E-03-2.98111E-03-1.10865E-01
 -1        98 9.78885E+00-1.08617E-03-1.37299E-02 5.18483E-03-2.07518E-03-1.11469E-01
 -1        99 1.02074E+01-1.50132E-04 1.78522E-02-4.93194E-04-9.19586E-04-1.13392E-01
 -1       100 9.59057E+00-3.47394E-04-6.49962E-03-1.03907E-03 1.72384E-03-8.62246E-02
 -1       101 9.90234E+00-4.21812E-04-1.14952E-02 3.54783E-04-2.21837E-04-1.17500E-01
 -1       102 1.00015E+01 4.94905E-04-1.20318E-03-4.91830E-03 2.30565E-04-1.40731E-01
 -1       103 9.90955E+00-4.87028E-04-4.22126E-03-5.42474E-03 6.49979E-04-1.35960E-01
 -1       104 1.00895E+01 7.75860E-05 6.65383E-03 8.96389E-04 8.02816E-05-1.39577E-01
 -1       105 1.00966E+01-4.81739E-04 1.30787E-02 1.83049E-04-2.73984E-04-1.17903E-01
 -1       106 1.04084E+01-3.26309E-04 6.92024E-03 2.14457E-03 2.27597E-03-8.52520E-02
 -1       107 1.00412E+01-6.27875E-04 9.37702E-03 4.99868E-04 2.37893E-03-1.46276E-01
 -1       108 1.01700E+01-4.06962E-04 1.01816E-02-2.14811E-03-3.97199E-03-5.38890E-02
 -1       109 1.01573E+01-1.00925E-03 1.17215E-03 2.29308E-03 8.03343E-04-1.03730E-01
 -1       110 9.99958E+00 9.53423E-04 9.31629E-04-2.08204E-03-1.32165E-03-1.63102E-01
 -1       111 1.00198E+01 6.20530E-04-1.51223E-02 3.68545E-03 1.33309E-04-1.28779E-01
 -1       112 1.00435E+01-7.36655E-04-2.38837E-02-2.57034E-03-2.93942E-03-7.12470E-02
 -1       113 9.95917E+00-1.29653E-05-1.57256E-02-6.80728E-04 1.90204E-04-1.44029E-01
 -1       114 9.99044E+00-4.01457E-04 1.79575E-02-6.02892E-03 2.51439E-03-1.32915E-01
 -1       115 9.85055E+00 5.08172E-04-2.97155E-03 2.15868E-03 1.78086E-03-1.04592E-01
 -1       116 9.82939E+00 4.35787E-04-7.71642E-03 2.33706E-03-1.42552E-03-6.09882E-02
 -1       117 9.95433E+00 8.07931E-04 2.48291E-02 3.41696E-03-2.68300E-03-7.24147E-02
 -1       118 9.73341E+00-4.81566E-04-6.82420E-03 5.01735E-03-7.63158E-04-6.47308E-02
 -1       119 1.02641E+01 2.33229E-04 9.59778E-03-3.09993E-03-2.83759E-03-6.23323E-02
 -1       120 1.00061E+01 4.42705E-04-4.62182E-03-1.28704E-03 4.35968E-04-1.74966E-01
 -1       121 9.95382E+00-1.35310E-03-6.10658E-03 1.79734E-03 4.82333E-05-1.10238E-01
 -1       122 9.79959E+00 5.01494E-04-1.94851E-02-3.56906E-03 1.90653E-04-1.12075E-01
 -1       123 1.00511E+01 1.84159E-04 7.09204E-03 6.00877E-04-2.84944E-04-1.11167E-01
 -1       124 1.02025E+01-1.69623E-04 1.79081E-02 4.40346E-03-5.23776E-06-1.12913E-01
 -1       125 1.01703E+01-6.45858E-04 8.60775E-03 4.38268E-03 1.88217E-03-5.97519E-02
 -1       126 1.00359E+01 8.82713E-04 1.40420E-02-2.06124E-03-3.08843E-03-1.44198E-01
 -1       127 1.01575E+01 3.72479E-04 1.85098E-04 1.14052E-03 2.33312E-04-1.05154E-01
 -1       128 1.00428E+01-1.25629E-03-2.25956E-02 4.39476E-03 8.80465E-04-7.21783E-02
 -1       129 1.02648E+01 1.18779E-03 1.13375E-02 1.83175E-03 4.08263E-03-6.84796E-02
 -1       130 1.00869E+01 2.69893E-04 3.25943E-03-2.36656E-04-6.96793E-04-1.36487E-01
 -1       131 1.04095E+01-8.89569E-04 7.00360E-03-3.23095E-03-3.42871E-03-8.59465E-02
 -1       132 9.83012E+00-4.28211E-04-8.42445E-03-2.46097E-03 7.89909E-04-5.53659E-02
 -1       133 9.85606E+00 6.48144E-04-1.04014E-03 5.89746E-03 7.14400E-04-1.03446E-01
 -1       134 9.96688E+00-6.24148E-04-1.36950E-02 8.48701E-04-1.44489E-03-1.45711E-01
 -1       135 9.95818E+00 2.72867E-04 2.28410E-02-3.07022E-03 2.57297E-03-7.01145E-02
 -1       136 9.98750E+00-9.74133E-04 1.81523E-02 6.03877E-03-1.32927E-03-1.27049E-01
 -1       137 1.00021E+01 5.90033E-04-8.18099E-04-1.52299E-03-4.14878E-03-1.63648E-01
 -1       138 9.90305E+00 2.10555E-04-1.30671E-02-2.46121E-03-1.18476E-03-1.16795E-01
 -1       139 9.99890E+00 4.07834E-04-2.28628E-04-1.09459E-03-4.30531E-04-1.42045E-01
 -1       140 9.91531E+00 4.90905E-04-6.83433E-03-7.03328E-05 2.40799E-04-1.38730E-01
 -1       141 9.59115E+00 8.99304E-04-7.09737E-03 4.49273E-03-3.18390E-03-8.55237E-02
 -1       142 9.73656E+00-1.79599E-04-1.31030E-02-1.55487E-03 6.17439E-03-6.24056E-02
 -1       143 1.00115E+01 1.83117E-03-1.37094E-02-6.74675E-03-3.44254E-03-1.27053E-01
 -1       144 1.01003E+01 1.33951E-04 1.37871E-02-1.01180E-03-6.66047E-04-1.18641E-01
 -1       145 9.67575E+00-7.58094E-04-8.82985E-03-3.84957E-03-6.28163E-05-2.45387E-02
 -1       146 9.53292E+00 1.85197E-04-1.28205E-02 3.78591E-03 2.57340E-03-4.14798E-02
 -1       147 9.84187E+00 6.59166E-04-1.43594E-02 7.20912E-04 3.10218E-04-7.86320E-03
 -1       148 9.83197E+00 8.67181E-04-1.92411E-02-2.99046E-03-1.42245E-03 4.91853E-04
 -1       149 9.53068E+00-1.90940E-03-9.48197E-03 3.84304E-03-3.16479E-03-7.93470E-03
 -1       150 9.42903E+00-1.84495E-03-1.20493E-02 1.08288E-02-3.48486E-03-3.90733E-02
 -1       151 9.42515E+00-1.03764E-03-3.89137E-03-6.17725E-03 5.44541E-04-3.65857E-02
 -1       152 9.51298E+00-2.07855E-03-1.58249E-02 8.97010E-04 2.80461E-04-5.77997E-02
 -1       153 9.42152E+00 2.91220E-05-7.99201E-03-2.03172E-03 2.94039E-03-7.21213E-02
 -1       154 9.60423E+00-4.37616E-04-1.57183E-02-8.30560E-04-2.76268E-03-4.32437E-02
 -1       155 9.60179E+00-1.98263E-03 3.60498E-04 7.39312E-03 4.53817E-03 1.92346E-06
 -1       156 9.42779E+00-9.49652E-04-2.90677E-03 3.36017E-03-5.81814E-04-4.20312E-02
 -1       157 9.62302E+00-1.51758E-04-1.14202E-02-1.51088E-03-3.99695E-03-1.35772E-02
 -1       158 9.60906E+00-3.39605E-05-6.87805E-03-3.16580E-03 3.28010E-03-2.22162E-02
 -1       159 9.69758E+00-1.74349E-04-3.51797E-03-1.26882E-03-1.74551E-03-1.85728E-02
 -1       160 9.75475E+00 7.87135E-04-6.71997E-03-3.08776E-03 1.21040E-03 2.77227E-03
 -1       161 9.75099E+00 9.35035E-05-2.52344E-03 1.69791E-03 7.18129E-05-1.27873E-02
 -1       162 9.90355E+00 3.56964E-03 5.60028E-03-2.15374E-03-1.05966E-03-1.35625E-02
 -1       163 9.90252E+00-2.21767E-03 1.72165E-02 2.93891E-03-2.41415E-03-2.33855E-02
 -1       164 9.82590E+00-1.81708E-03 6.99150E-03 3.86583E-03-1.96112E-03-2.38627E-02
 -1       165 9.90180E+00 1.74677E-04 5.53449E-04-4.15857E-04 7.33328E-04-1.23104E-02
 -1       166 9.75115E+00-5.38386E-06-4.48319E-03 1.78197E-04 1.32531E-03-1.10606E-02
 -1       167 9.75400E+00 9.16694E-04-4.58478E-03-2.45764E-03-4.67584E-04-2.11637E-03
 -1       168 9.68268E+00 1.01444E-03-8.01828E-04-2.12095E-03 1.85452E-03-1.27097E-02
 -1       169 9.89992E+00 2.76662E-03 5.72805E-03-2.71612E-03 3.15873E-04-1.31353E-02
 -1       170 1.03032E+01-2.72406E-04 9.67489E-03-3.07503E-03-9.32401E-05-2.03176E-02
 -1       171 1.01750E+01-7.38932E-04 1.70810E-02 3.59007E-03 4.54357E-03 1.16458E-02
 -1       172 1.01562E+01 1.75327E-03 1.15575E-02 1.03148E-03 2.76444E-05-1.99539E-02
 -1       173 1.04808E+01 1.89442E-03 3.64215E-03 3.29386E-04-4.65134E-04-1.91677E-02
 -1       174 1.04739E+01 2.16162E-03 9.63562E-03-3.24390E-03-2.58016E-03-8.30768E-03
 -1       175 1.03817E+01 1.13675E-03 6.15690E-03-3.45906E-03 3.46607E-03-2.04467E-02
 -1       176 1.05791E+01 1.15171E-03 1.43182E-03-6.77309E-03-2.31872E-03-3.72178E-02
 -1       177 1.03962E+01 1.93724E-04 1.20633E-03 3.11783E-03-5.44396E-03-2.66461E-02
 -1       178 1.02980E+01 4.61720E-04 1.56848E-03-4.41834E-03-5.48183E-04-1.51632E-02
 -1       179 1.02458E+01 6.74347E-06 6.15267E-03-1.36289E-03 3.55435E-03 2.21761E-03
 -1       180 1.01006E+01-1.76058E-03-1.07724E-02 1.13575E-03-1.34971E-03-1.15466E-02
 -1       181 1.02274E+01-9.54025E-04 1.73465E-02 1.95750E-03 1.32624E-03 4.49007E-03
 -1       182 1.02300E+01 8.44301E-04 4.00404E-03-2.09959E-03-7.84610E-04-8.09353E-03
 -1       183 1.02158E+01-5.21131E-04 9.19806E-03-3.00940E-03-3.36916E-03-2.56742E-02
 -1       184 1.03157E+01-1.25825E-03-2.26584E-03 1.09772E-03 7.09334E-04-1.88437E-02
 -1       185 1.01013E+01-2.35799E-03-6.47500E-03-4.81099E-03 2.70353E-03-1.54474E-02
 -1       186 1.01049E+01 4.41207E-03-1.70397E-02 1.76577E-03 5.21790E-03-2.99856E-02
 -1       187 1.01678E+01-3.58525E-04-3.03211E-03-8.91269E-04-4.32880E-03-1.25011E-02
 -1       188 1.05651E+01 1.71328E-04 5.34306E-03 1.41105E-02 3.09109E-03-3.57428E-02
 -1       189 1.04915E+01-4.55842E-04 5.08675E-03-4.67667E-03 2.49011E-03-3.67532E-02
 -1       190 1.03811E+01 6.54102E-05 1.01799E-02 1.93396E-05-5.01342E-03-1.22050E-02
 -1       191 1.04033E+01 1.43623E-03-2.68871E-03-7.38378E-03 4.37350E-03-1.12648E-03
 -1       192 1.05776E+01 1.15663E-03 4.09040E-03 6.68060E-03 9.69564E-04-3.59847E-02
 -1       193 1.05750E+01 2.07829E-03 1.36214E-02-9.41367E-03-3.57816E-03-4.01734E-02
 -1       194 1.01140E+01 1.84553E-04-4.14198E-03 7.24036E-03 6.02652E-04-4.20532E-03
 -1       195 1.00797E+01 1.19677E-05 1.09047E-02-1.03983E-04-9.46130E-04-1.51007E-01
 -1       196 9.95560E+00 1.31769E-04-9.36775E-03 1.70307E-03 1.67924E-04-1.61304E-01
 -1       197 9.77207E+00-1.43411E-04-2.08043E-02 1.71874E-03-3.89599E-03-1.12535E-01
 -1       198 9.89106E+00 4.03275E-04-5.66729E-03-2.29559E-03-2.33819E-03-1.31044E-01
 -1       199 9.88226E+00-1.60824E-04-4.14279E-03 1.83404E-03 1.13888E-03-1.34750E-01
 -1       200 9.97415E+00 5.85005E-04-4.89408E-03-2.53674E-03 1.29460E-03-1.72566E-01
 -1       201 9.85885E+00 6.70906E-04-1.22743E-02 1.66365E-03 3.58223E-05-1.27761E-01
 -1       202 9.83558E+00-9.51379E-04-7.41053E-03 1.00149E-03-2.11934E-04-6.63439E-02
 -1       203 9.89905E+00-7.52479E-04-7.38009E-03-9.29304E-04 1.78112E-03-6.13187E-02
 -1       204 9.95751E+00-1.16515E-03-8.56884E-03-1.75234E-03-3.27692E-04-1.25409E-01
 -1       205 9.90411E+00 5.49132E-04-1.32804E-02 1.61882E-03-1.84457E-03-7.59226E-02
 -1       206 9.82360E+00 1.12792E-04-7.11573E-03-4.09138E-03-1.30027E-03-8.60055E-02
 -1       207 9.97985E+00-4.24605E-04 2.07917E-02 2.93642E-03 2.48041E-04-1.34137E-01
 -1       208 9.97975E+00-2.16517E-03 5.08425E-02 4.07675E-03-3.00435E-03-1.15241E-01
 -1       209 1.01222E+01-1.16769E-03-2.14678E-02-2.50667E-03-1.21332E-03-6.43156E-02
 -1       210 1.00690E+01-1.59046E-04-3.19114E-02-2.58172E-03-2.00840E-03-6.07957E-02
 -1       211 1.00403E+01 1.01027E-04-1.57026E-02 3.38322E-03 2.42086E-03-9.31543E-02
 -1       212 1.00633E+01 1.38120E-03-3.70055E-02 4.40204E-03 2.66359E-03-7.19075E-02
 -1       213 1.02876E+01-5.15114E-04 5.68091E-03 1.91931E-04 1.46778E-03-7.03910E-02
 -1       214 1.03452E+01 5.89418E-04 1.17957E-02-4.06170E-03-3.30854E-03-6.46735E-02
 -1       215 9.63616E+00-7.44139E-04-1.47053E-02-3.20787E-03-2.77222E-03-6.83100E-02
 -1       216 9.69202E+00-8.60625E-04-1.58637E-02-9.05589E-03 1.27474E-03-7.13325E-02
 -1       217 1.00072E+01 4.25298E-04-1.51583E-02-3.54968E-03-3.28698E-03-1.33512E-01
 -1       218 1.00166E+01 1.73656E-04-4.13321E-02-4.47483E-03-1.81292E-03-1.17523E-01
 -1       219 9.99259E+00 3.64510E-04 5.79373E-03-1.79387E-03-2.21100E-03-1.59805E-01
 -1       220 9.97343E+00-2.30512E-04-1.03917E-02-1.99598E-03 1.22346E-03-1.59790E-01
 -1       221 9.97929E+00-4.86814E-04 4.22509E-03 4.96160E-03 4.68718E-04-1.61310E-01
 -1       222 1.00919E+01 1.26366E-04-6.49126E-03-2.44632E-03 5.53584E-03-9.39753E-02
 -1       223 1.00581E+01 2.06677E-04 2.53434E-03-7.30849E-05-2.76878E-03-1.16214E-01
 -1       224 1.00957E+01 4.14477E-04 2.70600E-03-3.13782E-03-5.68687E-03-1.20488E-01
 -1       225 1.01537E+01-6.03451E-04 3.62582E-03 5.26488E-04 5.00940E-04-1.05400E-01
 -1       226 1.01375E+01-5.51272E-04 1.65548E-02 6.30848E-04 1.31494E-03-1.20354E-01
 -1       227 1.00350E+01-1.84920E-04 4.33467E-03-2.36537E-03 1.84772E-04-1.52654E-01
 -1       228 1.01945E+01 3.47746E-04 1.10461E-02-2.29089E-03-2.10197E-03-9.07400E-02
 -1       229 9.82240E+00-4.05383E-04-1.38727E-02-1.77876E-03 4.76169E-04-8.86233E-02
 -1       230 9.96450E+00-2.59235E-04-8.40742E-03 8.16741E-03 3.82151E-04-1.45888E-01
 -1       231 1.00842E+01 5.23954E-04 9.53398E-03 4.21946E-03 1.40090E-03-1.33369E-01
 -1       232 1.00248E+01 6.74344E-05 3.12766E-04 1.35965E-03 5.13540E-04-1.53569E-01
 -1       233 1.00439E+01 5.19759E-04-2.70530E-03-1.96423E-03 1.67226E-03-1.66521E-01
 -1       234 9.99769E+00 1.43422E-04 1.20596E-04-1.98548E-03-4.93672E-04-1.36797E-01
 -1       235 9.85558E+00-4.43707E-04-6.18215E-03 8.56702E-04 1.38953E-03-1.06273E-01
 -1       236 9.87550E+00 4.68115E-04-4.65237E-03-4.54570E-03-1.33140E-03-1.14125E-01
 -1       237 1.00431E+01-3.43554E-04 8.51088E-03 4.04776E-03 1.75686E-03-1.35404E-01
 -1       238 1.00050E+01 2.28439E-04-5.66896E-03 7.25801E-03-3.74338E-03-1.74448E-01
 -1       239 9.93667E+00-4.09282E-04 3.05406E-02-1.13424E-03-2.10281E-03-5.95399E-02
 -1       240 9.95587E+00-7.70566E-04 9.30999E-03-2.08655E-03 5.48859E-03-8.48920E-02
 -1       241 9.96904E+00-7.43147E-04 3.52588E-02 4.02993E-03 2.13804E-04-1.28221E-01
 -1       242 9.89500E+00 3.02022E-05-1.20291E-02-3.59310E-03 3.23355E-03-7.96702E-02
 -1       243 9.97728E+00-1.39818E-03 4.47074E-02-1.53254E-04 9.91622E-04-1.14781E-01
 -1       244 9.98559E+00 8.50837E-04 3.90701E-04-1.56914E-03 1.11893E-03-1.51588E-01
 -1       245 9.94590E+00 3.34018E-04-1.27774E-02 3.19622E-03-1.18897E-03-1.31773E-01
 -1       246 9.89231E+00-1.74946E-04-1.16895E-02 1.34702E-03-4.94198E-03-5.75812E-02
 -1       247 9.83356E+00 8.32128E-04-3.87535E-03 1.67631E-03 9.46538E-04-8.77814E-02
 -1       248 1.03433E+01 6.50641E-04 9.88141E-03 3.76076E-03 1.51255E-03-6.84117E-02
 -1       249 1.01380E+01 2.40767E-04 1.21638E-02 2.77375E-03-1.97319E-03-1.28235E-01
 -1       250 1.02685E+01 8.11365E-04 5.15481E-03-6.67310E-03-4.48067E-03-8.42731E-02
 -1       251 1.02045E+01 3.33602E-04 5.39590E-03 2.69783E-04-4.63339E-04-8.81478E-02
 -1       252 1.02219E+01 1.24237E-04 1.65815E-02 5.10642E-03 1.67672E-05-1.13878E-01
 -1       253 1.00444E+01 3.70719E-04 8.04050E-03-2.35089E-04-8.18978E-04-1.33963E-01
 -1       254 1.01507E+01 4.96342E-04 1.62339E-02-4.00399E-03-5.62876E-05-1.23911E-01
 -1       255 1.03612E+01 1.95138E-03 1.09267E-02 1.75563E-03 1.06692E-03-6.32730E-02
 -1       256 1.03126E+01-1.29273E-03 1.22153E-02-2.20216E-03 2.50545E-03-9.83991E-02
 -1       257 9.95242E+00-9.87697E-05-4.99572E-03-2.69345E-03-1.25727E-03-1.40559E-01
 -1       258 1.00164E+01-4.66605E-04 7.61539E-03-2.19142E-03 8.58127E-04-1.55634E-01
 -1       259 1.01562E+01-1.86724E-04 1.36947E-02 2.06381E-03 1.12413E-03-1.14581E-01
 -1       260 9.77638E+00-8.62293E-04-1.37296E-02-3.52719E-03-8.20249E-04-1.10697E-01
 -1       261 9.62754E+00-7.39540E-04-9.75126E-03 2.98573E-03 1.51501E-03-7.31025E-02
 -1       262 9.93851E+00-9.60487E-04 4.06809E-02 2.06892E-03-1.80859E-03-6.82760E-02
 -1       263 1.00992E+01 1.91701E-03 6.56315E-03 1.73919E-03-1.68147E-03-6.63771E-02
 -1       264 1.03655E+01 1.49007E-03 1.37105E-02 2.79688E-03-2.23933E-03-6.66375E-02
 -1       265 9.65662E+00-1.05799E-03-1.10576E-02 6.70313E-03-3.65350E-03-6.44382E-02
 -1       266 1.02312E+01 6.86276E-05 1.40213E-02 8.43294E-04-1.10441E-03-1.16536E-01
 -1       267 1.01097E+01-3.43327E-04 1.08659E-02 3.94825E-03 5.72020E-03-5.26014E-02
 -1       268 9.66518E+00 4.77730E-04-1.41839E-02 1.71442E-04 2.55371E-03-7.62387E-02
 -1       269 1.00209E+01 6.38537E-04-4.69814E-02 5.36608E-03 3.03053E-04-1.14303E-01
 -1       270 9.95121E+00 2.41875E-04 2.12190E-02-1.24039E-03 2.47662E-03-9.82175E-02
 -1       271 9.77208E+00 1.01370E-03-1.00678E-02 7.69342E-03 2.09869E-03-9.20147E-02
 -1       272 9.84137E+00-5.60609E-04-5.17209E-03 2.18037E-03-1.01906E-04-1.12005E-01
 -1       273 9.71774E+00-4.83533E-04-2.66738E-03 3.40134E-03 1.83761E-03-6.32953E-02
 -1       274 1.00992E+01 6.65424E-04 4.33386E-03 2.41012E-03 8.67943E-04-1.04895E-01
 -1       275 1.00193E+01-9.17163E-04-1.79731E-02 1.12435E-04-2.04173E-03-1.25368E-01
 -1       276 1.01006E+01-3.08393E-04 1.43819E-02 9.38511E-04-4.58146E-05-1.18425E-01
 -1       277 1.01619E+01 1.70612E-04 6.14066E-03 1.59006E-03 2.85969E-03-6.35338E-02
 -1       278 9.80546E+00 5.26629E-04-6.07943E-03 1.88582E-03 1.04171E-03-1.06391E-01
 -1       279 1.03174E+01 3.38871E-04 9.99749E-03 4.93668E-03 1.26924E-03-7.17068E-02
 -1       280 9.90964E+00 1.83423E-04-1.35921E-02-5.48347E-03-6.71796E-04-1.23194E-01
 -3
    1PSTEP                         3           1           1          
  100CL  101 1.000000000         280                     0    1           1
 -4  TOSTRAIN    6    1
 -5  EXX         1    4    1    1
 -5  EYY         1    4    2    2
 -5  EZZ         1    4    3    3
 -5  EXY         1    4    1    2
 -5  EYZ         1    4    2    3
 -5  EZX         1    4    3    1
 -1         1 4.67807E-05 1.59178E-09 3.44974E-08-5.11786E-08 3.11216E-08-3.43851E-07
 -1         2 5.32266E-05-1.83211E-09-3.35383E-08 5.29259E-08 3.21890E-08-3.35314E-07
 -1         3 4.67720E-05 6.94069E-09 3.11928E-08 5.68121E-08-3.03811E-08-3.34434E-07
 -1         4 5.32279E-05-7.54006E-09-3.05780E-08-5.55011E-08-3.50459E-08-3.26554E-07
 -1         5 4.98171E-05 1.25496E-08 3.14004E-07 8.08973E-09-4.45990E-09-1.90451E-07
 -1         6 5.01587E-05-1.87630E-08-3.06200E-07-2.66770E-08 7.91407E-09-1.85881E-07
 -1         7 4.98406E-05 1.70702E-08 3.10277E-07-2.39690E-08-6.89885E-09-1.82819E-07
 -1         8 5.01684E-05-1.37991E-08-2.97282E-07 2.38131E-08-1.00140E-08-1.92699E-07
 -1         9 4.99858E-05 7.18748E-10 3.61940E-09-7.39374E-09 1.34544E-09-6.29179E-07
 -1        10 4.86723E-05 1.96796E-14 3.96798E-13 2.25050E-09 5.11813E-14-5.51544E-07
 -1        11 5.13444E-05 7.23452E-15-3.96313E-13-2.11553E-09 3.42380E-14-5.40774E-07
 -1        12 4.66676E-05 1.96246E-09-1.75735E-08 1.74622E-08-1.50315E-09-4.62019E-07
 -1        13 4.64129E-05 5.90166E-14 2.88211E-13 9.18443E-09 7.88237E-14-4.54161E-07
 -1        14 4.65066E-05 6.90036E-14 2.36960E-13-8.30867E-09-1.18703E-13-4.54444E-07
 -1        15 5.00197E-05 9.24444E-10 2.52879E-09-1.11574E-08-3.02803E-09-6.17551E-07
 -1        16 4.86334E-05 9.95349E-15 3.81911E-13-5.03839E-09 8.75836E-15-5.39334E-07
 -1        17 5.13455E-05-8.75039E-15-3.68884E-13 1.75684E-09-7.82133E-15-5.35069E-07
 -1        18 5.31094E-05-9.81640E-09 2.57443E-08-1.60382E-09 1.11615E-08-3.67878E-07
 -1        19 5.35886E-05-8.09793E-14-2.78681E-13-1.14603E-09 6.28800E-14-4.46121E-07
 -1        20 5.35350E-05-8.40420E-14-1.81994E-13 3.51689E-09-4.04541E-14-4.33186E-07
 -1        21 5.00447E-05 2.54991E-09 1.47313E-08-1.51777E-08 1.85206E-08-7.44106E-07
 -1        22 4.99875E-05-6.68181E-09 3.81835E-07 1.45978E-08-2.92243E-08-5.09952E-07
 -1        23 5.00122E-05 6.21549E-09-3.76309E-07-4.18864E-08-8.93272E-09-5.21483E-07
 -1        24 4.98275E-05-1.59019E-08 2.52445E-07-1.42998E-09 5.36175E-09-1.84529E-07
 -1        25 4.98297E-05 1.10715E-08 2.95773E-07 3.28750E-09 1.42175E-08-1.98847E-07
 -1        26 4.98315E-05 1.80156E-09 2.85152E-07-8.29832E-09-2.39715E-08-2.09228E-07
 -1        27 5.00008E-05 2.96239E-09 8.87089E-09-1.38056E-09-9.88067E-09-7.16109E-07
 -1        28 4.99731E-05-6.29483E-09 4.12318E-07-2.85549E-08 1.46832E-08-5.06347E-07
 -1        29 5.00291E-05 1.53999E-08-4.00331E-07 2.58514E-08 1.53694E-08-5.09811E-07
 -1        30 5.02179E-05 3.31349E-08-2.82358E-07 9.51678E-09 8.16731E-09-2.25531E-07
 -1        31 5.01673E-05 4.43942E-09-2.72439E-07-1.71535E-08 2.76531E-08-2.26279E-07
 -1        32 5.01747E-05-5.96603E-10-2.85021E-07 2.28881E-08-2.10996E-08-2.16712E-07
 -1        33 4.84742E-05 4.10819E-09-2.07402E-08 6.21648E-09 4.99811E-10-7.20438E-08
 -1        34 4.75744E-05-1.16657E-08 1.83769E-08-1.83856E-08 2.45426E-08-1.35019E-07
 -1        35 4.91295E-05-5.01736E-10 7.34488E-08-1.60019E-08 2.29959E-08-6.66320E-08
 -1        36 5.15137E-05-4.97754E-09 2.28716E-08-5.28811E-09-1.33094E-08-4.66585E-08
 -1        37 5.24465E-05 1.17245E-08-2.73886E-08 1.63112E-08 2.11172E-08-1.26850E-07
 -1        38 5.08361E-05-3.83324E-09-7.23960E-08 1.53211E-08 2.63294E-08-7.35776E-08
 -1        39 4.84520E-05-1.43594E-09-3.03466E-08-5.06621E-09 1.67076E-08-4.75529E-08
 -1        40 4.75504E-05-1.13425E-08 2.56200E-08 6.24712E-09-3.67150E-09-1.15069E-07
 -1        41 4.91532E-05-1.03672E-09 7.41615E-08 1.74740E-08-2.25246E-08-6.88494E-08
 -1        42 5.15331E-05 3.63148E-09 3.23284E-08-3.48214E-09 1.52940E-08-8.58887E-08
 -1        43 5.24236E-05 9.14812E-09-2.44857E-08-7.15886E-09-1.50377E-08-1.17743E-07
 -1        44 5.08583E-05 3.22572E-09-8.38119E-08-2.68787E-08-2.82393E-08-8.09240E-08
 -1        45 5.00286E-05-3.98190E-10-1.89267E-09 1.52923E-08 9.82407E-09-6.33982E-07
 -1        46 5.12814E-05-1.76273E-10 3.81651E-08 1.64388E-08-9.11374E-09-5.81730E-07
 -1        47 4.87612E-05 4.62067E-09-7.96964E-08-2.64963E-08-1.29279E-08-5.81398E-07
 -1        48 5.11927E-05 1.56919E-09 4.64317E-08 5.26743E-09 6.91188E-09-5.55530E-07
 -1        49 4.87767E-05-5.34228E-09-1.24328E-08-3.14509E-09-8.88777E-09-5.24307E-07
 -1        50 5.21579E-05-7.63078E-13 1.49970E-08 2.06221E-08 7.49844E-09-4.60389E-07
 -1        51 5.06081E-05 1.17003E-14-3.66163E-13-4.99172E-10 1.69300E-14-5.80939E-07
 -1        52 4.99780E-05 4.14171E-15 1.24863E-08-3.58766E-10-7.75866E-11-6.21602E-07
 -1        53 5.06290E-05 1.56272E-09-8.43559E-09-3.68818E-09-3.43623E-09-5.91445E-07
 -1        54 4.94336E-05 8.36127E-10-1.87954E-08 5.34466E-09-8.97976E-09-6.06268E-07
 -1        55 4.78496E-05 1.20074E-09-1.60188E-08-2.18035E-08 7.40938E-09-4.70975E-07
 -1        56 4.93698E-05 3.51208E-10-1.98174E-08-1.17134E-08 9.73332E-09-6.16072E-07
 -1        57 4.76906E-05 3.86562E-09-3.91261E-08 6.21889E-09-1.76305E-08-5.20004E-07
 -1        58 4.84798E-05 1.02874E-09 4.62066E-13 9.71402E-09 1.64616E-08-5.47912E-07
 -1        59 4.77093E-05-3.97860E-15 2.23343E-13 8.54967E-09-7.54030E-14-4.87203E-07
 -1        60 4.78098E-05-2.11741E-10-1.24470E-08 2.69888E-08-6.32969E-09-4.52273E-07
 -1        61 4.95259E-05-2.37566E-09-1.36618E-08-2.00585E-08-8.01891E-09-5.65500E-07
 -1        62 5.22139E-05-5.23753E-09 3.31101E-08-3.69637E-08-1.39366E-08-4.88398E-07
 -1        63 5.12811E-05 1.56149E-14-4.33770E-13-1.94110E-09-1.97921E-14-5.64872E-07
 -1        64 5.06359E-05 9.32927E-10 8.04257E-09-4.24862E-09 4.48800E-09-5.82565E-07
 -1        65 5.21532E-05-2.60850E-09 1.93296E-08-1.91429E-08-8.36081E-09-4.47502E-07
 -1        66 5.06069E-05 1.03253E-14-4.19513E-13-1.44604E-09 7.19692E-15-5.91722E-07
 -1        67 5.00319E-05 3.91271E-15-5.78883E-09-2.21095E-09 9.68388E-10-6.12931E-07
 -1        68 5.20745E-05-6.17360E-10 3.31896E-08 3.12948E-08 1.62863E-08-4.64303E-07
 -1        69 4.93646E-05 3.47552E-15 3.78505E-13-3.57133E-09 1.37001E-14-5.72050E-07
 -1        70 4.99010E-05-1.53690E-09-8.59655E-09 2.12189E-10 9.61181E-09-7.82842E-07
 -1        71 4.99014E-05 5.82401E-09-5.15080E-07 3.55279E-08 3.97806E-09-6.16266E-07
 -1        72 4.98723E-05 3.03640E-09-4.54369E-07-3.01234E-08-1.04757E-08-6.46868E-07
 -1        73 5.00852E-05-1.56379E-08 5.64916E-07 1.94015E-08-1.53485E-08-6.26280E-07
 -1        74 5.00627E-05-1.26580E-08 5.25599E-07 6.32783E-09-4.42681E-09-6.00251E-07
 -1        75 5.00250E-05 1.47988E-08-3.63024E-07-6.48533E-09-8.92027E-09-4.43675E-07
 -1        76 5.00177E-05-7.21673E-09-4.25120E-07 3.51455E-09-8.49323E-09-4.41696E-07
 -1        77 4.99106E-05 7.68279E-09-3.67470E-07-1.92198E-08 1.20244E-08-6.56622E-07
 -1        78 4.98539E-05 1.54305E-08-3.00771E-07-1.13893E-08 1.33895E-09-5.94527E-07
 -1        79 4.97691E-05 5.28928E-09-2.94590E-07 2.53746E-09 2.55387E-08-7.28023E-07
 -1        80 4.99877E-05 8.16465E-10-1.20238E-08 1.34803E-08 2.72473E-08-6.96092E-07
 -1        81 5.00072E-05-2.73650E-08 4.83746E-07 1.92074E-08-2.62308E-08-4.94252E-07
 -1        82 4.99725E-05 5.97739E-09 4.77977E-07-8.23820E-09-1.44334E-08-4.25255E-07
 -1        83 5.00873E-05-1.63323E-08 3.83101E-07 1.95094E-08-1.49763E-08-6.56643E-07
 -1        84 5.01139E-05-5.01516E-09 3.31621E-07-6.95581E-09 4.71610E-08-6.71383E-07
 -1        85 4.99881E-05-1.16620E-09 3.27982E-07-2.84956E-08 9.41899E-09-5.72747E-07
 -1        86 4.99741E-05-4.58730E-09 4.06201E-07-4.18870E-09-4.15558E-09-3.85206E-07
 -1        87 4.99682E-05-5.29158E-10 4.74064E-07 1.17287E-08 6.39380E-09-4.39330E-07
 -1        88 5.00939E-05-9.52372E-09 3.53196E-07-1.26975E-08 2.39719E-08-6.87187E-07
 -1        89 5.00218E-05-7.28801E-09 3.64872E-07 9.91704E-09-5.94095E-08-7.27582E-07
 -1        90 5.00138E-05-5.52014E-09-6.52146E-08-1.78216E-08-9.08796E-09-6.97018E-07
 -1        91 4.99955E-05 3.21666E-08-4.37188E-07 2.40839E-08 2.71800E-08-5.00176E-07
 -1        92 5.00155E-05-1.40999E-08-4.52932E-07 4.37819E-10 9.90540E-09-4.23880E-07
 -1        93 4.98775E-05-6.30646E-09-3.08710E-07-1.08216E-08-4.38360E-08-6.31415E-07
 -1        94 4.98799E-05 1.08787E-08-3.39308E-07 1.94307E-08 1.84773E-08-6.70827E-07
 -1        95 5.00089E-05 8.69409E-10-4.46763E-09-1.61918E-08 6.32158E-09-8.54134E-07
 -1        96 5.02658E-05 1.57172E-09 2.14648E-08 1.67659E-08-1.03185E-08-5.58444E-07
 -1        97 4.97351E-05-2.23656E-09-4.60853E-08 5.97701E-09-1.49056E-08-5.54326E-07
 -1        98 4.89443E-05-5.43084E-09-6.86496E-08 2.59242E-08-1.03759E-08-5.57345E-07
 -1        99 5.10368E-05-7.50658E-10 8.92609E-08-2.46597E-09-4.59793E-09-5.66961E-07
 -1       100 4.79529E-05-1.73697E-09-3.24981E-08-5.19533E-09 8.61918E-09-4.31123E-07
 -1       101 4.95117E-05-2.10906E-09-5.74762E-08 1.77391E-09-1.10919E-09-5.87500E-07
 -1       102 5.00077E-05 2.47452E-09-6.01588E-09-2.45915E-08 1.15282E-09-7.03656E-07
 -1       103 4.95477E-05-2.43514E-09-2.11063E-08-2.71237E-08 3.24990E-09-6.79800E-07
 -1       104 5.04474E-05 3.87930E-10 3.32691E-08 4.48194E-09 4.01408E-10-6.97883E-07
 -1       105 5.04830E-05-2.40870E-09 6.53934E-08 9.15245E-10-1.36992E-09-5.89514E-07
 -1       106 5.20422E-05-1.63155E-09 3.46012E-08 1.07229E-08 1.13799E-08-4.26260E-07
 -1       107 5.02059E-05-3.13937E-09 4.68851E-08 2.49934E-09 1.18947E-08-7.31381E-07
 -1       108 5.08502E-05-2.03481E-09 5.09078E-08-1.07405E-08-1.98599E-08-2.69445E-07
 -1       109 5.07865E-05-5.04627E-09 5.86073E-09 1.14654E-08 4.01671E-09-5.18652E-07
 -1       110 4.99979E-05 4.76711E-09 4.65814E-09-1.04102E-08-6.60826E-09-8.15512E-07
 -1       111 5.00992E-05 3.10265E-09-7.56117E-08 1.84272E-08 6.66543E-10-6.43894E-07
 -1       112 5.02176E-05-3.68328E-09-1.19418E-07-1.28517E-08-1.46971E-08-3.56235E-07
 -1       113 4.97959E-05-6.48263E-11-7.86278E-08-3.40364E-09 9.51022E-10-7.20145E-07
 -1       114 4.99522E-05-2.00728E-09 8.97875E-08-3.01446E-08 1.25719E-08-6.64574E-07
 -1       115 4.92528E-05 2.54086E-09-1.48578E-08 1.07934E-08 8.90429E-09-5.22962E-07
 -1       116 4.91469E-05 2.17893E-09-3.85821E-08 1.16853E-08-7.12758E-09-3.04941E-07
 -1       117 4.97717E-05 4.03966E-09 1.24146E-07 1.70848E-08-1.34150E-08-3.62074E-07
 -1       118 4.86670E-05-2.40783E-09-3.41210E-08 2.50867E-08-3.81579E-09-3.23654E-07
 -1       119 5.13204E-05 1.16615E-09 4.79889E-08-1.54997E-08-1.41879E-08-3.11662E-07
 -1       120 5.00305E-05 2.21353E-09-2.31091E-08-6.43520E-09 2.17984E-09-8.74831E-07
 -1       121 4.97691E-05-6.76548E-09-3.05329E-08 8.98672E-09 2.41166E-10-5.51188E-07
 -1       122 4.89980E-05 2.50747E-09-9.74254E-08-1.78453E-08 9.53265E-10-5.60375E-07
 -1       123 5.02555E-05 9.20795E-10 3.54602E-08 3.00439E-09-1.42472E-09-5.55833E-07
 -1       124 5.10125E-05-8.48117E-10 8.95406E-08 2.20173E-08-2.61888E-11-5.64565E-07
 -1       125 5.08515E-05-3.22929E-09 4.30388E-08 2.19134E-08 9.41083E-09-2.98759E-07
 -1       126 5.01797E-05 4.41357E-09 7.02099E-08-1.03062E-08-1.54421E-08-7.20989E-07
 -1       127 5.07877E-05 1.86239E-09 9.25488E-10 5.70261E-09 1.16656E-09-5.25769E-07
 -1       128 5.02142E-05-6.28143E-09-1.12978E-07 2.19738E-08 4.40232E-09-3.60891E-07
 -1       129 5.13241E-05 5.93894E-09 5.66873E-08 9.15874E-09 2.04131E-08-3.42398E-07
 -1       130 5.04347E-05 1.34947E-09 1.62972E-08-1.18328E-09-3.48396E-09-6.82434E-07
 -1       131 5.20476E-05-4.44784E-09 3.50180E-08-1.61547E-08-1.71436E-08-4.29732E-07
 -1       132 4.91506E-05-2.14106E-09-4.21223E-08-1.23049E-08 3.94954E-09-2.76830E-07
 -1       133 4.92803E-05 3.24072E-09-5.20069E-09 2.94873E-08 3.57200E-09-5.17232E-07
 -1       134 4.98344E-05-3.12074E-09-6.84749E-08 4.24351E-09-7.22443E-09-7.28554E-07
 -1       135 4.97909E-05 1.36433E-09 1.14205E-07-1.53511E-08 1.28648E-08-3.50573E-07
 -1       136 4.99375E-05-4.87067E-09 9.07615E-08 3.01939E-08-6.64634E-09-6.35245E-07
 -1       137 5.00106E-05 2.95016E-09-4.09049E-09-7.61497E-09-2.07439E-08-8.18240E-07
 -1       138 4.95153E-05 1.05277E-09-6.53357E-08-1.23060E-08-5.92381E-09-5.83977E-07
 -1       139 4.99945E-05 2.03917E-09-1.14314E-09-5.47296E-09-2.15265E-09-7.10225E-07
 -1       140 4.95765E-05 2.45453E-09-3.41717E-08-3.51664E-10 1.20400E-09-6.93652E-07
 -1       141 4.79557E-05 4.49652E-09-3.54869E-08 2.24636E-08-1.59195E-08-4.27619E-07
 -1       142 4.86828E-05-8.97997E-10-6.55151E-08-7.77437E-09 3.08719E-08-3.12028E-07
 -1       143 5.00576E-05 9.15583E-09-6.85472E-08-3.37338E-08-1.72127E-08-6.35263E-07
 -1       144 5.05016E-05 6.69755E-10 6.89356E-08-5.05898E-09-3.33024E-09-5.93207E-07
 -1       145 4.83788E-05-3.79047E-09-4.41492E-08-1.92478E-08-3.14082E-10-1.22694E-07
 -1       146 4.76646E-05 9.25985E-10-6.41023E-08 1.89296E-08 1.28670E-08-2.07399E-07
 -1       147 4.92093E-05 3.29583E-09-7.17968E-08 3.60456E-09 1.55109E-09-3.93160E-08
 -1       148 4.91599E-05 4.33591E-09-9.62057E-08-1.49523E-08-7.11227E-09 2.45927E-09
 -1       149 4.76534E-05-9.54698E-09-4.74098E-08 1.92152E-08-1.58240E-08-3.96735E-08
 -1       150 4.71451E-05-9.22476E-09-6.02465E-08 5.41439E-08-1.74243E-08-1.95366E-07
 -1       151 4.71257E-05-5.18822E-09-1.94569E-08-3.08863E-08 2.72271E-09-1.82929E-07
 -1       152 4.75649E-05-1.03927E-08-7.91246E-08 4.48505E-09 1.40230E-09-2.88999E-07
 -1       153 4.71076E-05 1.45610E-10-3.99600E-08-1.01586E-08 1.47020E-08-3.60606E-07
 -1       154 4.80212E-05-2.18808E-09-7.85913E-08-4.15280E-09-1.38134E-08-2.16219E-07
 -1       155 4.80090E-05-9.91315E-09 1.80249E-09 3.69656E-08 2.26908E-08 9.61730E-12
 -1       156 4.71390E-05-4.74826E-09-1.45338E-08 1.68008E-08-2.90907E-09-2.10156E-07
 -1       157 4.81151E-05-7.58791E-10-5.71009E-08-7.55441E-09-1.99848E-08-6.78858E-08
 -1       158 4.80453E-05-1.69802E-10-3.43903E-08-1.58290E-08 1.64005E-08-1.11081E-07
 -1       159 4.84879E-05-8.71747E-10-1.75899E-08-6.34409E-09-8.72753E-09-9.28640E-08
 -1       160 4.87737E-05 3.93568E-09-3.35998E-08-1.54388E-08 6.05202E-09 1.38613E-08
 -1       161 4.87550E-05 4.67518E-10-1.26172E-08 8.48953E-09 3.59065E-10-6.39364E-08
 -1       162 4.95177E-05 1.78482E-08 2.80014E-08-1.07687E-08-5.29830E-09-6.78125E-08
 -1       163 4.95126E-05-1.10884E-08 8.60823E-08 1.46945E-08-1.20707E-08-1.16928E-07
 -1       164 4.91295E-05-9.08539E-09 3.49575E-08 1.93291E-08-9.80562E-09-1.19314E-07
 -1       165 4.95090E-05 8.73386E-10 2.76725E-09-2.07929E-09 3.66664E-09-6.15518E-08
 -1       166 4.87558E-05-2.69193E-11-2.24160E-08 8.90983E-10 6.62656E-09-5.53032E-08
 -1       167 4.87700E-05 4.58347E-09-2.29239E-08-1.22882E-08-2.33792E-09-1.05819E-08
 -1       168 4.84134E-05 5.07219E-09-4.00914E-09-1.06047E-08 9.27262E-09-6.35484E-08
 -1       169 4.94996E-05 1.38331E-08 2.86403E-08-1.35806E-08 1.57936E-09-6.56764E-08
 -1       170 5.15161E-05-1.36203E-09 4.83744E-08-1.53752E-08-4.66200E-10-1.01588E-07
 -1       171 5.08749E-05-3.69466E-09 8.54050E-08 1.79504E-08 2.27179E-08 5.82289E-08
 -1       172 5.07810E-05 8.76637E-09 5.77875E-08 5.15740E-09 1.38222E-10-9.97695E-08
 -1       173 5.24041E-05 9.47210E-09 1.82108E-08 1.64693E-09-2.32567E-09-9.58386E-08
 -1       174 5.23696E-05 1.08081E-08 4.81781E-08-1.62195E-08-1.29008E-08-4.15384E-08
 -1       175 5.19083E-05 5.68374E-09 3.07845E-08-1.72953E-08 1.73303E-08-1.02234E-07
 -1       176 5.28953E-05 5.75855E-09 7.15911E-09-3.38655E-08-1.15936E-08-1.86089E-07
 -1       177 5.19810E-05 9.68620E-10 6.03166E-09 1.55892E-08-2.72198E-08-1.33231E-07
 -1       178 5.14902E-05 2.30860E-09 7.84240E-09-2.20917E-08-2.74091E-09-7.58159E-08
 -1       179 5.12289E-05 3.37174E-11 3.07633E-08-6.81446E-09 1.77718E-08 1.10880E-08
 -1       180 5.05030E-05-8.80288E-09-5.38619E-08 5.67874E-09-6.74855E-09-5.77328E-08
 -1       181 5.11370E-05-4.77012E-09 8.67326E-08 9.78752E-09 6.63118E-09 2.24504E-08
 -1       182 5.11498E-05 4.22151E-09 2.00202E-08-1.04980E-08-3.92305E-09-4.04677E-08
 -1       183 5.10792E-05-2.60565E-09 4.59903E-08-1.50470E-08-1.68458E-08-1.28371E-07
 -1       184 5.15786E-05-6.29127E-09-1.13292E-08 5.48860E-09 3.54667E-09-9.42184E-08
 -1       185 5.05065E-05-1.17899E-08-3.23750E-08-2.40550E-08 1.35176E-08-7.72368E-08
 -1       186 5.05245E-05 2.20604E-08-8.51985E-08 8.82884E-09 2.60895E-08-1.49928E-07
 -1       187 5.08392E-05-1.79263E-09-1.51606E-08-4.45635E-09-2.16440E-08-6.25053E-08
 -1       188 5.28256E-05 8.56638E-10 2.67153E-08 7.05523E-08 1.54555E-08-1.78714E-07
 -1       189 5.24574E-05-2.27921E-09 2.54337E-08-2.33833E-08 1.24506E-08-1.83766E-07
 -1       190 5.19055E-05 3.27051E-10 5.08994E-08 9.66980E-11-2.50671E-08-6.10251E-08
 -1       191 5.20164E-05 7.18113E-09-1.34435E-08-3.69189E-08 2.18675E-08-5.63240E-09
 -1       192 5.28878E-05 5.78316E-09 2.04520E-08 3.34030E-08 4.84782E-09-1.79924E-07
 -1       193 5.28749E-05 1.03914E-08 6.81072E-08-4.70683E-08-1.78908E-08-2.00867E-07
 -1       194 5.05700E-05 9.22765E-10-2.07099E-08 3.62018E-08 3.01326E-09-2.10266E-08
 -1       195 5.03983E-05 5.98383E-11 5.45237E-08-5.19913E-10-4.73065E-09-7.55036E-07
 -1       196 4.97780E-05 6.58847E-10-4.68387E-08 8.51534E-09 8.39618E-10-8.06521E-07
 -1       197 4.88603E-05-7.17057E-10-1.04022E-07 8.59369E-09-1.94800E-08-5.62675E-07
 -1       198 4.94553E-05 2.01637E-09-2.83364E-08-1.14779E-08-1.16909E-08-6.55218E-07
 -1       199 4.94113E-05-8.04119E-10-2.07140E-08 9.17022E-09 5.69440E-09-6.73751E-07
 -1       200 4.98707E-05 2.92503E-09-2.44704E-08-1.26837E-08 6.47301E-09-8.62832E-07
 -1       201 4.92943E-05 3.35453E-09-6.13717E-08 8.31825E-09 1.79112E-10-6.38804E-07
 -1       202 4.91779E-05-4.75690E-09-3.70527E-08 5.00745E-09-1.05967E-09-3.31719E-07
 -1       203 4.94952E-05-3.76240E-09-3.69004E-08-4.64652E-09 8.90561E-09-3.06594E-07
 -1       204 4.97875E-05-5.82577E-09-4.28442E-08-8.76170E-09-1.63846E-09-6.27043E-07
 -1       205 4.95206E-05 2.74566E-09-6.64021E-08 8.09412E-09-9.22283E-09-3.79613E-07
 -1       206 4.91180E-05 5.63958E-10-3.55787E-08-2.04569E-08-6.50133E-09-4.30028E-07
 -1       207 4.98992E-05-2.12303E-09 1.03959E-07 1.46821E-08 1.24021E-09-6.70683E-07
 -1       208 4.98987E-05-1.08258E-08 2.54212E-07 2.03838E-08-1.50218E-08-5.76207E-07
 -1       209 5.06108E-05-5.83847E-09-1.07339E-07-1.25334E-08-6.06661E-09-3.21578E-07
 -1       210 5.03450E-05-7.95228E-10-1.59557E-07-1.29086E-08-1.00420E-08-3.03978E-07
 -1       211 5.02015E-05 5.05137E-10-7.85129E-08 1.69161E-08 1.21043E-08-4.65772E-07
 -1       212 5.03166E-05 6.90599E-09-1.85028E-07 2.20102E-08 1.33180E-08-3.59538E-07
 -1       213 5.14378E-05-2.57557E-09 2.84045E-08 9.59653E-10 7.33891E-09-3.51955E-07
 -1       214 5.17262E-05 2.94709E-09 5.89786E-08-2.03085E-08-1.65427E-08-3.23368E-07
 -1       215 4.81808E-05-3.72069E-09-7.35265E-08-1.60393E-08-1.38611E-08-3.41550E-07
 -1       216 4.84601E-05-4.30313E-09-7.93186E-08-4.52795E-08 6.37369E-09-3.56663E-07
 -1       217 5.00361E-05 2.12649E-09-7.57914E-08-1.77484E-08-1.64349E-08-6.67559E-07
 -1       218 5.00830E-05 8.68280E-10-2.06661E-07-2.23742E-08-9.06461E-09-5.87617E-07
 -1       219 4.99630E-05 1.82255E-09 2.89687E-08-8.96933E-09-1.10550E-08-7.99024E-07
 -1       220 4.98672E-05-1.15256E-09-5.19586E-08-9.97988E-09 6.11730E-09-7.98950E-07
 -1       221 4.98965E-05-2.43407E-09 2.11254E-08 2.48080E-08 2.34359E-09-8.06549E-07
 -1       222 5.04594E-05 6.31832E-10-3.24563E-08-1.22316E-08 2.76792E-08-4.69876E-07
 -1       223 5.02905E-05 1.03338E-09 1.26717E-08-3.65425E-10-1.38439E-08-5.81071E-07
 -1       224 5.04783E-05 2.07238E-09 1.35300E-08-1.56891E-08-2.84343E-08-6.02440E-07
 -1       225 5.07683E-05-3.01726E-09 1.81291E-08 2.63244E-09 2.50470E-09-5.26999E-07
 -1       226 5.06876E-05-2.75636E-09 8.27741E-08 3.15424E-09 6.57472E-09-6.01771E-07
 -1       227 5.01750E-05-9.24601E-10 2.16733E-08-1.18269E-08 9.23859E-10-7.63270E-07
 -1       228 5.09726E-05 1.73873E-09 5.52303E-08-1.14544E-08-1.05098E-08-4.53700E-07
 -1       229 4.91120E-05-2.02691E-09-6.93637E-08-8.89382E-09 2.38085E-09-4.43116E-07
 -1       230 4.98225E-05-1.29617E-09-4.20371E-08 4.08370E-08 1.91075E-09-7.29441E-07
 -1       231 5.04212E-05 2.61977E-09 4.76699E-08 2.10973E-08 7.00451E-09-6.66847E-07
 -1       232 5.01238E-05 3.37172E-10 1.56383E-09 6.79827E-09 2.56770E-09-7.67844E-07
 -1       233 5.02195E-05 2.59879E-09-1.35265E-08-9.82116E-09 8.36131E-09-8.32607E-07
 -1       234 4.99885E-05 7.17109E-10 6.02978E-10-9.92742E-09-2.46836E-09-6.83984E-07
 -1       235 4.92779E-05-2.21854E-09-3.09108E-08 4.28351E-09 6.94767E-09-5.31364E-07
 -1       236 4.93775E-05 2.34058E-09-2.32618E-08-2.27285E-08-6.65698E-09-5.70627E-07
 -1       237 5.02154E-05-1.71777E-09 4.25544E-08 2.02388E-08 8.78429E-09-6.77021E-07
 -1       238 5.00248E-05 1.14220E-09-2.83448E-08 3.62900E-08-1.87169E-08-8.72242E-07
 -1       239 4.96834E-05-2.04641E-09 1.52703E-07-5.67120E-09-1.05140E-08-2.97699E-07
 -1       240 4.97794E-05-3.85283E-09 4.65500E-08-1.04328E-08 2.74430E-08-4.24460E-07
 -1       241 4.98452E-05-3.71574E-09 1.76294E-07 2.01497E-08 1.06902E-09-6.41104E-07
 -1       242 4.94750E-05 1.51011E-10-6.01457E-08-1.79655E-08 1.61678E-08-3.98351E-07
 -1       243 4.98864E-05-6.99091E-09 2.23537E-07-7.66268E-10 4.95811E-09-5.73905E-07
 -1       244 4.99280E-05 4.25419E-09 1.95350E-09-7.84570E-09 5.59465E-09-7.57939E-07
 -1       245 4.97295E-05 1.67009E-09-6.38872E-08 1.59811E-08-5.94486E-09-6.58863E-07
 -1       246 4.94615E-05-8.74730E-10-5.84473E-08 6.73509E-09-2.47099E-08-2.87906E-07
 -1       247 4.91678E-05 4.16064E-09-1.93768E-08 8.38154E-09 4.73269E-09-4.38907E-07
 -1       248 5.17164E-05 3.25321E-09 4.94070E-08 1.88038E-08 7.56274E-09-3.42059E-07
 -1       249 5.06902E-05 1.20384E-09 6.08191E-08 1.38687E-08-9.86593E-09-6.41177E-07
 -1       250 5.13423E-05 4.05682E-09 2.57741E-08-3.33655E-08-2.24033E-08-4.21366E-07
 -1       251 5.10223E-05 1.66801E-09 2.69795E-08 1.34891E-09-2.31669E-09-4.40739E-07
 -1       252 5.11096E-05 6.21184E-10 8.29074E-08 2.55321E-08 8.38359E-11-5.69392E-07
 -1       253 5.02222E-05 1.85360E-09 4.02025E-08-1.17544E-09-4.09489E-09-6.69813E-07
 -1       254 5.07537E-05 2.48171E-09 8.11696E-08-2.00199E-08-2.81438E-10-6.19556E-07
 -1       255 5.18061E-05 9.75692E-09 5.46336E-08 8.77813E-09 5.33459E-09-3.16365E-07
 -1       256 5.15629E-05-6.46363E-09 6.10767E-08-1.10108E-08 1.25272E-08-4.91995E-07
 -1       257 4.97621E-05-4.93849E-10-2.49786E-08-1.34673E-08-6.28635E-09-7.02794E-07
 -1       258 5.00820E-05-2.33302E-09 3.80769E-08-1.09571E-08 4.29064E-09-7.78171E-07
 -1       259 5.07809E-05-9.33622E-10 6.84734E-08 1.03191E-08 5.62067E-09-5.72905E-07
 -1       260 4.88819E-05-4.31146E-09-6.86479E-08-1.76360E-08-4.10125E-09-5.53484E-07
 -1       261 4.81377E-05-3.69770E-09-4.87563E-08 1.49286E-08 7.57504E-09-3.65512E-07
 -1       262 4.96926E-05-4.80243E-09 2.03405E-07 1.03446E-08-9.04297E-09-3.41380E-07
 -1       263 5.04962E-05 9.58504E-09 3.28158E-08 8.69595E-09-8.40736E-09-3.31886E-07
 -1       264 5.18276E-05 7.45033E-09 6.85525E-08 1.39844E-08-1.11967E-08-3.33187E-07
 -1       265 4.82831E-05-5.28995E-09-5.52879E-08 3.35157E-08-1.82675E-08-3.22191E-07
 -1       266 5.11560E-05 3.43138E-10 7.01066E-08 4.21647E-09-5.52203E-09-5.82681E-07
 -1       267 5.05484E-05-1.71664E-09 5.43297E-08 1.97412E-08 2.86010E-08-2.63007E-07
 -1       268 4.83259E-05 2.38865E-09-7.09194E-08 8.57212E-10 1.27686E-08-3.81194E-07
 -1       269 5.01045E-05 3.19268E-09-2.34907E-07 2.68304E-08 1.51527E-09-5.71515E-07
 -1       270 4.97561E-05 1.20937E-09 1.06095E-07-6.20194E-09 1.23831E-08-4.91088E-07
 -1       271 4.88604E-05 5.06848E-09-5.03391E-08 3.84671E-08 1.04934E-08-4.60074E-07
 -1       272 4.92069E-05-2.80305E-09-2.58604E-08 1.09019E-08-5.09532E-10-5.60023E-07
 -1       273 4.85887E-05-2.41766E-09-1.33369E-08 1.70067E-08 9.18804E-09-3.16476E-07
 -1       274 5.04962E-05 3.32712E-09 2.16693E-08 1.20506E-08 4.33971E-09-5.24474E-07
 -1       275 5.00963E-05-4.58581E-09-8.98656E-08 5.62175E-10-1.02087E-08-6.26839E-07
 -1       276 5.05029E-05-1.54196E-09 7.19094E-08 4.69255E-09-2.29073E-10-5.92126E-07
 -1       277 5.08093E-05 8.53060E-10 3.07033E-08 7.95031E-09 1.42984E-08-3.17669E-07
 -1       278 4.90273E-05 2.63314E-09-3.03972E-08 9.42912E-09 5.20853E-09-5.31955E-07
 -1       279 5.15870E-05 1.69436E-09 4.99875E-08 2.46834E-08 6.34622E-09-3.58534E-07
 -1       280 4.95482E-05 9.17115E-10-6.79605E-08-2.74173E-08-3.35898E-09-6.15970E-07
 -3
 9999
