    1C
    1UUSER                                                              
    1UDATE              17.september.2015                               
    1UTIME              15:03:32                                        
    1UHOST                                                              
    1UPGM               CalculiX                                        
    1UDIR                                                               
    1UDBN                                                               
    1UMAT    1STEEL                                                     
    2C                           280                                     1
 -1         1 0.00000E+00 0.00000E+00 0.00000E+00
 -1         2 0.00000E+00 0.00000E+00 1.00000E+01
 -1         3 0.00000E+00 1.00000E+01 0.00000E+00
 -1         4 0.00000E+00 1.00000E+01 1.00000E+01
 -1         5 1.00000E+01 0.00000E+00 0.00000E+00
 -1         6 1.00000E+01 0.00000E+00 1.00000E+01
 -1         7 1.00000E+01 1.00000E+01 0.00000E+00
 -1         8 1.00000E+01 1.00000E+01 1.00000E+01
 -1         9 0.00000E+00 0.00000E+00 5.00000E+00
 -1        10 0.00000E+00 0.00000E+00 2.50000E+00
 -1        11 0.00000E+00 0.00000E+00 7.50000E+00
 -1        12 0.00000E+00 5.00000E+00 0.00000E+00
 -1        13 0.00000E+00 2.50000E+00 0.00000E+00
 -1        14 0.00000E+00 7.50000E+00 0.00000E+00
 -1        15 0.00000E+00 1.00000E+01 5.00000E+00
 -1        16 0.00000E+00 1.00000E+01 2.50000E+00
 -1        17 0.00000E+00 1.00000E+01 7.50000E+00
 -1        18 0.00000E+00 5.00000E+00 1.00000E+01
 -1        19 0.00000E+00 2.50000E+00 1.00000E+01
 -1        20 0.00000E+00 7.50000E+00 1.00000E+01
 -1        21 1.00000E+01 0.00000E+00 5.00000E+00
 -1        22 1.00000E+01 0.00000E+00 2.50000E+00
 -1        23 1.00000E+01 0.00000E+00 7.50000E+00
 -1        24 1.00000E+01 5.00000E+00 0.00000E+00
 -1        25 1.00000E+01 2.50000E+00 0.00000E+00
 -1        26 1.00000E+01 7.50000E+00 0.00000E+00
 -1        27 1.00000E+01 1.00000E+01 5.00000E+00
 -1        28 1.00000E+01 1.00000E+01 2.50000E+00
 -1        29 1.00000E+01 1.00000E+01 7.50000E+00
 -1        30 1.00000E+01 5.00000E+00 1.00000E+01
 -1        31 1.00000E+01 2.50000E+00 1.00000E+01
 -1        32 1.00000E+01 7.50000E+00 1.00000E+01
 -1        33 5.00000E+00 0.00000E+00 0.00000E+00
 -1        34 2.50000E+00 0.00000E+00 0.00000E+00
 -1        35 7.50000E+00 0.00000E+00 0.00000E+00
 -1        36 5.00000E+00 0.00000E+00 1.00000E+01
 -1        37 2.50000E+00 0.00000E+00 1.00000E+01
 -1        38 7.50000E+00 0.00000E+00 1.00000E+01
 -1        39 5.00000E+00 1.00000E+01 0.00000E+00
 -1        40 2.50000E+00 1.00000E+01 0.00000E+00
 -1        41 7.50000E+00 1.00000E+01 0.00000E+00
 -1        42 5.00000E+00 1.00000E+01 1.00000E+01
 -1        43 2.50000E+00 1.00000E+01 1.00000E+01
 -1        44 7.50000E+00 1.00000E+01 1.00000E+01
 -1        45 0.00000E+00 5.00000E+00 5.00000E+00
 -1        46 0.00000E+00 2.50000E+00 7.50000E+00
 -1        47 0.00000E+00 2.50000E+00 2.50000E+00
 -1        48 0.00000E+00 7.50000E+00 7.50000E+00
 -1        49 0.00000E+00 7.50000E+00 2.50000E+00
 -1        50 0.00000E+00 1.25000E+00 8.75000E+00
 -1        51 0.00000E+00 1.25000E+00 6.25000E+00
 -1        52 0.00000E+00 2.50000E+00 5.00000E+00
 -1        53 0.00000E+00 3.75000E+00 6.25000E+00
 -1        54 0.00000E+00 1.25000E+00 3.75000E+00
 -1        55 0.00000E+00 1.25000E+00 1.25000E+00
 -1        56 0.00000E+00 3.75000E+00 3.75000E+00
 -1        57 0.00000E+00 3.75000E+00 1.25000E+00
 -1        58 0.00000E+00 5.00000E+00 2.50000E+00
 -1        59 0.00000E+00 6.25000E+00 1.25000E+00
 -1        60 0.00000E+00 8.75000E+00 1.25000E+00
 -1        61 0.00000E+00 6.25000E+00 3.75000E+00
 -1        62 0.00000E+00 3.75000E+00 8.75000E+00
 -1        63 0.00000E+00 5.00000E+00 7.50000E+00
 -1        64 0.00000E+00 8.75000E+00 6.25000E+00
 -1        65 0.00000E+00 8.75000E+00 8.75000E+00
 -1        66 0.00000E+00 6.25000E+00 6.25000E+00
 -1        67 0.00000E+00 7.50000E+00 5.00000E+00
 -1        68 0.00000E+00 6.25000E+00 8.75000E+00
 -1        69 0.00000E+00 8.75000E+00 3.75000E+00
 -1        70 1.00000E+01 5.00000E+00 5.00000E+00
 -1        71 1.00000E+01 2.50000E+00 7.50000E+00
 -1        72 1.00000E+01 7.50000E+00 7.50000E+00
 -1        73 1.00000E+01 7.50000E+00 2.50000E+00
 -1        74 1.00000E+01 2.50000E+00 2.50000E+00
 -1        75 1.00000E+01 6.25000E+00 8.75000E+00
 -1        76 1.00000E+01 8.75000E+00 8.75000E+00
 -1        77 1.00000E+01 8.75000E+00 6.25000E+00
 -1        78 1.00000E+01 5.00000E+00 7.50000E+00
 -1        79 1.00000E+01 6.25000E+00 6.25000E+00
 -1        80 1.00000E+01 7.50000E+00 5.00000E+00
 -1        81 1.00000E+01 6.25000E+00 1.25000E+00
 -1        82 1.00000E+01 8.75000E+00 1.25000E+00
 -1        83 1.00000E+01 8.75000E+00 3.75000E+00
 -1        84 1.00000E+01 6.25000E+00 3.75000E+00
 -1        85 1.00000E+01 5.00000E+00 2.50000E+00
 -1        86 1.00000E+01 3.75000E+00 1.25000E+00
 -1        87 1.00000E+01 1.25000E+00 1.25000E+00
 -1        88 1.00000E+01 1.25000E+00 3.75000E+00
 -1        89 1.00000E+01 3.75000E+00 3.75000E+00
 -1        90 1.00000E+01 2.50000E+00 5.00000E+00
 -1        91 1.00000E+01 3.75000E+00 8.75000E+00
 -1        92 1.00000E+01 1.25000E+00 8.75000E+00
 -1        93 1.00000E+01 3.75000E+00 6.25000E+00
 -1        94 1.00000E+01 1.25000E+00 6.25000E+00
 -1        95 5.00000E+00 0.00000E+00 5.00000E+00
 -1        96 7.50000E+00 0.00000E+00 7.50000E+00
 -1        97 7.50000E+00 0.00000E+00 2.50000E+00
 -1        98 2.50000E+00 0.00000E+00 2.50000E+00
 -1        99 2.50000E+00 0.00000E+00 7.50000E+00
 -1       100 1.25000E+00 0.00000E+00 1.25000E+00
 -1       101 1.25000E+00 0.00000E+00 3.75000E+00
 -1       102 2.50000E+00 0.00000E+00 5.00000E+00
 -1       103 3.75000E+00 0.00000E+00 3.75000E+00
 -1       104 3.75000E+00 0.00000E+00 6.25000E+00
 -1       105 1.25000E+00 0.00000E+00 6.25000E+00
 -1       106 1.25000E+00 0.00000E+00 8.75000E+00
 -1       107 6.25000E+00 0.00000E+00 6.25000E+00
 -1       108 6.25000E+00 0.00000E+00 8.75000E+00
 -1       109 5.00000E+00 0.00000E+00 7.50000E+00
 -1       110 7.50000E+00 0.00000E+00 5.00000E+00
 -1       111 8.75000E+00 0.00000E+00 6.25000E+00
 -1       112 8.75000E+00 0.00000E+00 8.75000E+00
 -1       113 6.25000E+00 0.00000E+00 3.75000E+00
 -1       114 8.75000E+00 0.00000E+00 3.75000E+00
 -1       115 5.00000E+00 0.00000E+00 2.50000E+00
 -1       116 6.25000E+00 0.00000E+00 1.25000E+00
 -1       117 8.75000E+00 0.00000E+00 1.25000E+00
 -1       118 3.75000E+00 0.00000E+00 1.25000E+00
 -1       119 3.75000E+00 0.00000E+00 8.75000E+00
 -1       120 5.00000E+00 1.00000E+01 5.00000E+00
 -1       121 7.50000E+00 1.00000E+01 2.50000E+00
 -1       122 2.50000E+00 1.00000E+01 2.50000E+00
 -1       123 7.50000E+00 1.00000E+01 7.50000E+00
 -1       124 2.50000E+00 1.00000E+01 7.50000E+00
 -1       125 6.25000E+00 1.00000E+01 8.75000E+00
 -1       126 6.25000E+00 1.00000E+01 6.25000E+00
 -1       127 5.00000E+00 1.00000E+01 7.50000E+00
 -1       128 8.75000E+00 1.00000E+01 8.75000E+00
 -1       129 3.75000E+00 1.00000E+01 8.75000E+00
 -1       130 3.75000E+00 1.00000E+01 6.25000E+00
 -1       131 1.25000E+00 1.00000E+01 8.75000E+00
 -1       132 6.25000E+00 1.00000E+01 1.25000E+00
 -1       133 5.00000E+00 1.00000E+01 2.50000E+00
 -1       134 6.25000E+00 1.00000E+01 3.75000E+00
 -1       135 8.75000E+00 1.00000E+01 1.25000E+00
 -1       136 8.75000E+00 1.00000E+01 3.75000E+00
 -1       137 7.50000E+00 1.00000E+01 5.00000E+00
 -1       138 1.25000E+00 1.00000E+01 3.75000E+00
 -1       139 2.50000E+00 1.00000E+01 5.00000E+00
 -1       140 3.75000E+00 1.00000E+01 3.75000E+00
 -1       141 1.25000E+00 1.00000E+01 1.25000E+00
 -1       142 3.75000E+00 1.00000E+01 1.25000E+00
 -1       143 8.75000E+00 1.00000E+01 6.25000E+00
 -1       144 1.25000E+00 1.00000E+01 6.25000E+00
 -1       145 5.00000E+00 5.00000E+00 0.00000E+00
 -1       146 2.50000E+00 7.50000E+00 0.00000E+00
 -1       147 7.50000E+00 7.50000E+00 0.00000E+00
 -1       148 7.50000E+00 2.50000E+00 0.00000E+00
 -1       149 2.50000E+00 2.50000E+00 0.00000E+00
 -1       150 1.25000E+00 3.75000E+00 0.00000E+00
 -1       151 1.25000E+00 1.25000E+00 0.00000E+00
 -1       152 2.50000E+00 5.00000E+00 0.00000E+00
 -1       153 1.25000E+00 6.25000E+00 0.00000E+00
 -1       154 3.75000E+00 6.25000E+00 0.00000E+00
 -1       155 3.75000E+00 3.75000E+00 0.00000E+00
 -1       156 1.25000E+00 8.75000E+00 0.00000E+00
 -1       157 3.75000E+00 1.25000E+00 0.00000E+00
 -1       158 3.75000E+00 8.75000E+00 0.00000E+00
 -1       159 5.00000E+00 7.50000E+00 0.00000E+00
 -1       160 6.25000E+00 8.75000E+00 0.00000E+00
 -1       161 6.25000E+00 6.25000E+00 0.00000E+00
 -1       162 8.75000E+00 8.75000E+00 0.00000E+00
 -1       163 8.75000E+00 6.25000E+00 0.00000E+00
 -1       164 7.50000E+00 5.00000E+00 0.00000E+00
 -1       165 8.75000E+00 3.75000E+00 0.00000E+00
 -1       166 6.25000E+00 3.75000E+00 0.00000E+00
 -1       167 6.25000E+00 1.25000E+00 0.00000E+00
 -1       168 5.00000E+00 2.50000E+00 0.00000E+00
 -1       169 8.75000E+00 1.25000E+00 0.00000E+00
 -1       170 5.00000E+00 5.00000E+00 1.00000E+01
 -1       171 7.50000E+00 7.50000E+00 1.00000E+01
 -1       172 7.50000E+00 2.50000E+00 1.00000E+01
 -1       173 2.50000E+00 7.50000E+00 1.00000E+01
 -1       174 2.50000E+00 2.50000E+00 1.00000E+01
 -1       175 3.75000E+00 8.75000E+00 1.00000E+01
 -1       176 1.25000E+00 8.75000E+00 1.00000E+01
 -1       177 3.75000E+00 6.25000E+00 1.00000E+01
 -1       178 5.00000E+00 7.50000E+00 1.00000E+01
 -1       179 6.25000E+00 8.75000E+00 1.00000E+01
 -1       180 8.75000E+00 8.75000E+00 1.00000E+01
 -1       181 6.25000E+00 6.25000E+00 1.00000E+01
 -1       182 6.25000E+00 1.25000E+00 1.00000E+01
 -1       183 6.25000E+00 3.75000E+00 1.00000E+01
 -1       184 5.00000E+00 2.50000E+00 1.00000E+01
 -1       185 8.75000E+00 1.25000E+00 1.00000E+01
 -1       186 8.75000E+00 3.75000E+00 1.00000E+01
 -1       187 7.50000E+00 5.00000E+00 1.00000E+01
 -1       188 1.25000E+00 6.25000E+00 1.00000E+01
 -1       189 2.50000E+00 5.00000E+00 1.00000E+01
 -1       190 3.75000E+00 1.25000E+00 1.00000E+01
 -1       191 3.75000E+00 3.75000E+00 1.00000E+01
 -1       192 1.25000E+00 1.25000E+00 1.00000E+01
 -1       193 1.25000E+00 3.75000E+00 1.00000E+01
 -1       194 8.75000E+00 6.25000E+00 1.00000E+01
 -1       195 3.75000E+00 6.25000E+00 6.25000E+00
 -1       196 6.25000E+00 3.75000E+00 3.75000E+00
 -1       197 1.25000E+00 1.25000E+00 2.50000E+00
 -1       198 2.50000E+00 1.25000E+00 3.75000E+00
 -1       199 4.37500E+00 1.87500E+00 3.12500E+00
 -1       200 5.62500E+00 1.87500E+00 4.37500E+00
 -1       201 3.12500E+00 3.12500E+00 3.12500E+00
 -1       202 6.25000E+00 7.50000E+00 1.25000E+00
 -1       203 7.50000E+00 8.75000E+00 1.25000E+00
 -1       204 6.87500E+00 6.87500E+00 3.12500E+00
 -1       205 6.87500E+00 5.62500E+00 1.87500E+00
 -1       206 5.62500E+00 4.37500E+00 1.87500E+00
 -1       207 8.75000E+00 7.50000E+00 3.75000E+00
 -1       208 8.75000E+00 8.75000E+00 2.50000E+00
 -1       209 7.50000E+00 6.25000E+00 8.75000E+00
 -1       210 8.75000E+00 7.50000E+00 8.75000E+00
 -1       211 8.75000E+00 3.75000E+00 7.50000E+00
 -1       212 8.75000E+00 2.50000E+00 8.75000E+00
 -1       213 3.75000E+00 2.50000E+00 8.75000E+00
 -1       214 2.50000E+00 1.25000E+00 8.75000E+00
 -1       215 1.25000E+00 2.50000E+00 1.25000E+00
 -1       216 2.50000E+00 3.75000E+00 1.25000E+00
 -1       217 8.75000E+00 7.50000E+00 6.25000E+00
 -1       218 8.75000E+00 8.75000E+00 7.50000E+00
 -1       219 7.50000E+00 7.50000E+00 5.00000E+00
 -1       220 5.62500E+00 6.87500E+00 4.37500E+00
 -1       221 8.12500E+00 4.37500E+00 4.37500E+00
 -1       222 7.50000E+00 5.00000E+00 7.50000E+00
 -1       223 6.87500E+00 3.12500E+00 6.87500E+00
 -1       224 5.62500E+00 4.37500E+00 6.87500E+00
 -1       225 5.00000E+00 2.50000E+00 7.50000E+00
 -1       226 3.12500E+00 3.12500E+00 6.87500E+00
 -1       227 4.37500E+00 3.12500E+00 5.62500E+00
 -1       228 4.37500E+00 5.62500E+00 8.12500E+00
 -1       229 2.50000E+00 5.00000E+00 2.50000E+00
 -1       230 3.12500E+00 4.37500E+00 4.37500E+00
 -1       231 5.62500E+00 8.12500E+00 6.87500E+00
 -1       232 6.87500E+00 5.62500E+00 5.62500E+00
 -1       233 4.37500E+00 8.12500E+00 5.62500E+00
 -1       234 2.50000E+00 2.50000E+00 5.00000E+00
 -1       235 5.00000E+00 7.50000E+00 2.50000E+00
 -1       236 4.37500E+00 5.62500E+00 3.12500E+00
 -1       237 1.87500E+00 5.62500E+00 5.62500E+00
 -1       238 5.00000E+00 5.00000E+00 5.00000E+00
 -1       239 8.75000E+00 2.50000E+00 1.25000E+00
 -1       240 8.12500E+00 4.37500E+00 1.87500E+00
 -1       241 8.12500E+00 3.12500E+00 3.12500E+00
 -1       242 6.87500E+00 3.12500E+00 1.87500E+00
 -1       243 8.75000E+00 1.25000E+00 2.50000E+00
 -1       244 8.12500E+00 1.87500E+00 4.37500E+00
 -1       245 6.87500E+00 1.87500E+00 3.12500E+00
 -1       246 7.50000E+00 1.25000E+00 1.25000E+00
 -1       247 5.62500E+00 1.87500E+00 1.87500E+00
 -1       248 2.50000E+00 8.75000E+00 8.75000E+00
 -1       249 3.12500E+00 8.12500E+00 6.87500E+00
 -1       250 3.12500E+00 6.87500E+00 8.12500E+00
 -1       251 4.37500E+00 8.12500E+00 8.12500E+00
 -1       252 1.25000E+00 8.75000E+00 7.50000E+00
 -1       253 1.87500E+00 8.12500E+00 5.62500E+00
 -1       254 1.87500E+00 6.87500E+00 6.87500E+00
 -1       255 1.25000E+00 7.50000E+00 8.75000E+00
 -1       256 1.87500E+00 5.62500E+00 8.12500E+00
 -1       257 3.12500E+00 8.12500E+00 4.37500E+00
 -1       258 6.87500E+00 1.87500E+00 5.62500E+00
 -1       259 1.87500E+00 4.37500E+00 6.87500E+00
 -1       260 1.25000E+00 8.75000E+00 2.50000E+00
 -1       261 1.25000E+00 7.50000E+00 1.25000E+00
 -1       262 8.75000E+00 7.50000E+00 1.25000E+00
 -1       263 7.50000E+00 1.25000E+00 8.75000E+00
 -1       264 1.25000E+00 2.50000E+00 8.75000E+00
 -1       265 2.50000E+00 1.25000E+00 1.25000E+00
 -1       266 1.25000E+00 1.25000E+00 7.50000E+00
 -1       267 7.50000E+00 8.75000E+00 8.75000E+00
 -1       268 2.50000E+00 8.75000E+00 1.25000E+00
 -1       269 8.75000E+00 1.25000E+00 7.50000E+00
 -1       270 8.75000E+00 6.25000E+00 2.50000E+00
 -1       271 1.25000E+00 6.25000E+00 2.50000E+00
 -1       272 3.12500E+00 6.87500E+00 3.12500E+00
 -1       273 3.75000E+00 2.50000E+00 1.25000E+00
 -1       274 6.25000E+00 1.25000E+00 7.50000E+00
 -1       275 8.75000E+00 2.50000E+00 6.25000E+00
 -1       276 1.25000E+00 2.50000E+00 6.25000E+00
 -1       277 6.25000E+00 7.50000E+00 8.75000E+00
 -1       278 3.75000E+00 8.75000E+00 2.50000E+00
 -1       279 2.50000E+00 3.75000E+00 8.75000E+00
 -1       280 1.25000E+00 7.50000E+00 3.75000E+00
 -3
    3C                           129                                     1
 -1       633    6    0    1
 -2        95        98        47       196       103       197       198       200       199       201
 -1       634    6    0    1
 -2       147       121       145       196       203       202       161       205       204       206
 -1       635    6    0    1
 -2        73        70        27       121        84        80        83       208       207       136
 -1       636    6    0    1
 -2        72       170        30       171       209       187        75       210       181       194
 -1       637    6    0    1
 -2         9        98        47        95       101       197        54       102       103       198
 -1       638    6    0    1
 -2       172        70        30        71       211        78       186       212        93        91
 -1       639    6    0    1
 -2       170        99        36       174       213       119       184       191       214       190
 -1       640    6    0    1
 -2        12        47       149       145        57       215       150       152       216       155
 -1       641    6    0    1
 -2        70        27       123        72        80       143       217        79        77       218
 -1       642    6    0    1
 -2        39       147       121       145       160       203       132       159       161       202
 -1       643    6    0    1
 -2        70       120       121       196       219       134       207       221       220       204
 -1       644    6    0    1
 -2        70       172       170       196       211       183       222       221       223       224
 -1       645    6    0    1
 -2        95        99       170       195       104       213       225       227       226       228
 -1       646    6    0    1
 -2       145        45        47       196       229        56       216       206       230       201
 -1       647    6    0    1
 -2        70       123       120       195       217       126       219       232       231       233
 -1       648    6    0    1
 -2        47        45        95       196        56       234       198       201       230       200
 -1       649    6    0    1
 -2       121       120       145       196       134       235       202       204       220       206
 -1       650    6    0    1
 -2       145        39       120       121       159       133       235       202       132       134
 -1       651    6    0    1
 -2        70       120        27       121       219       137        80       207       134       136
 -1       652    6    0    1
 -2         9        47        45        95        54        56        52       102       198       234
 -1       653    6    0    1
 -2        70        27       120       123        80       137       219       217       143       126
 -1       654    6    0    1
 -2        45        47        12       145        56        57        58       229       216       152
 -1       655    6    0    1
 -2       170        95        36        99       225       109       184       213       104       119
 -1       656    6    0    1
 -2       195        45       145       196       237       229       236       238       230       206
 -1       657    6    0    1
 -2        95        45       195       196       234       237       227       200       230       238
 -1       658    6    0    1
 -2       170        95       195       196       225       227       228       224       200       238
 -1       659    6    0    1
 -2        70       170       195       196       222       228       232       221       224       238
 -1       660    6    0    1
 -2       195       120        70       196       233       219       232       238       220       221
 -1       661    6    0    1
 -2       145       120       195       196       235       233       236       206       220       238
 -1       662    6    0    1
 -2        74        24       148       196        86       165       239       241       240       242
 -1       663    6    0    1
 -2        21        74        97       196        88       243       114       244       241       245
 -1       664    6    0    1
 -2       148        33        97       196       167       116       246       242       247       245
 -1       665    6    0    1
 -2       173       124        42       195       248       129       175       250       249       251
 -1       666    6    0    1
 -2        48        15       124       195        64       144       252       254       253       249
 -1       667    6    0    1
 -2        18        48       173       195        68       255       188       256       254       250
 -1       668    6    0    1
 -2        74        70        24       196        89        85        86       241       221       240
 -1       669    6    0    1
 -2       170        18       173       195       189       188       177       228       256       250
 -1       670    6    0    1
 -2        70        74        21       196        89        88        90       221       241       244
 -1       671    6    0    1
 -2       120       123        42       195       126       125       127       233       231       251
 -1       672    6    0    1
 -2       170       173        42       195       177       175       178       228       250       251
 -1       673    6    0    1
 -2        42       124       120       195       129       130       127       251       249       233
 -1       674    6    0    1
 -2        15       122       120       195       138       140       139       253       257       233
 -1       675    6    0    1
 -2       124        15       120       195       144       139       130       249       253       233
 -1       676    6    0    1
 -2        15        48        45       195        64        66        67       253       254       237
 -1       677    6    0    1
 -2        24       147       145       196       163       161       164       240       205       206
 -1       678    6    0    1
 -2        95        97        33       196       113       116       115       200       245       247
 -1       679    6    0    1
 -2        33        98        95       196       118       103       115       247       199       200
 -1       680    6    0    1
 -2        95        96        21       196       107       111       110       200       258       244
 -1       681    6    0    1
 -2        97        95        21       196       113       110       114       245       200       244
 -1       682    6    0    1
 -2       145        33       148       196       168       167       166       206       247       242
 -1       683    6    0    1
 -2        24       145       148       196       164       166       165       240       206       242
 -1       684    6    0    1
 -2        18        45        48       195        63        66        68       256       237       254
 -1       685    6    0    1
 -2        45        18        46       195        63        62        53       237       256       259
 -1       686    6    0    1
 -2        48       124       173       195       252       248       255       254       249       250
 -1       687    6    0    1
 -2       148        97        74       196       246       243       239       242       245       241
 -1       688    6    0    1
 -2        74        24         5       148        86        25        87       239       165       169
 -1       689    6    0    1
 -2         3        49       122        15        60       260       141        16        69       138
 -1       690    6    0    1
 -2       146        12        49         3       153        59       261       156        14        60
 -1       691    6    0    1
 -2        15       124         4        48       144       131        17        64       252        65
 -1       692    6    0    1
 -2       149         1        47        12       151        55       215       150        13        57
 -1       693    6    0    1
 -2       147         7        73        24       162        82       262       163        26        81
 -1       694    6    0    1
 -2        36       172         6        96       182       185        38       108       263       112
 -1       695    6    0    1
 -2        98        47         1         9       197        55       100       101        54        10
 -1       696    6    0    1
 -2         2       174        46        18       192       264        50        19       193        62
 -1       697    6    0    1
 -2         1       149        98        33       151       265       100        34       157       118
 -1       698    6    0    1
 -2        48       173         4        18       255       176        65        68       188        20
 -1       699    6    0    1
 -2        30        72       171         8        75       210       194        32        76       180
 -1       700    6    0    1
 -2        97        21         5        74       114        22       117       243        88        87
 -1       701    6    0    1
 -2         9        46         2        99        51        50        11       105       266       106
 -1       702    6    0    1
 -2         8       123       171        42       128       267       180        44       125       179
 -1       703    6    0    1
 -2        97         5        33       148       117        35       116       246       169       167
 -1       704    6    0    1
 -2        99       174         2        36       214       192       106       119       190        37
 -1       705    6    0    1
 -2       173       124         4        42       248       131       176       175       129        43
 -1       706    6    0    1
 -2         3       122       146        39       141       268       156        40       142       158
 -1       707    6    0    1
 -2         8        72       123        27        76       218       128        29        77       143
 -1       708    6    0    1
 -2        71       172         6        30       212       185        92        91       186        31
 -1       709    6    0    1
 -2       147       121         7        39       203       135       162       160       132        41
 -1       710    6    0    1
 -2        73       121        27         7       208       136        83        82       135        28
 -1       711    6    0    1
 -2        71         6        96        21        92       112       269        94        23       111
 -1       712    6    0    1
 -2       146        49       122         3       261       260       268       156        60       141
 -1       713    6    0    1
 -2         2        46       174        99        50       264       192       106       266       214
 -1       714    6    0    1
 -2       123       171        72         8       267       210       218       128       180        76
 -1       715    6    0    1
 -2         7        73       121       147        82       208       135       162       262       203
 -1       716    6    0    1
 -2       173         4       124        48       176       131       248       255        65       252
 -1       717    6    0    1
 -2        96       172         6        71       263       185       112       269       212        92
 -1       718    6    0    1
 -2        74         5        97       148        87       117       243       239       169       246
 -1       719    6    0    1
 -2         1        98       149        47       100       265       151        55       197       215
 -1       720    6    0    1
 -2       147       121        70        73       203       207       270       262       208        84
 -1       721    6    0    1
 -2       121       147        70       196       203       270       207       204       205       221
 -1       722    6    0    1
 -2       147        70        24        73       270        85       163       262        84        81
 -1       723    6    0    1
 -2        70       147        24       196       270       163        85       221       205       240
 -1       724    6    0    1
 -2       146       195        45       145       272       237       271       154       236       229
 -1       725    6    0    1
 -2        12        45       146        49        58       271       153        59        61       261
 -1       726    6    0    1
 -2       146        45        12       145       271        58       153       154       229       152
 -1       727    6    0    1
 -2        98        47       145       149       197       216       273       265       215       155
 -1       728    6    0    1
 -2       145        47        98       196       216       197       273       206       201       199
 -1       729    6    0    1
 -2        33        98       145       149       118       273       168       157       265       155
 -1       730    6    0    1
 -2       145        98        33       196       273       118       168       206       199       247
 -1       731    6    0    1
 -2        95       196       172        96       200       223       274       107       258       263
 -1       732    6    0    1
 -2       172       196        95       170       223       200       274       183       224       225
 -1       733    6    0    1
 -2        36        95       172        96       109       274       182       108       107       263
 -1       734    6    0    1
 -2       172        95        36       170       274       109       182       183       225       184
 -1       735    6    0    1
 -2        96        70       172        71       275       211       263       269        93       212
 -1       736    6    0    1
 -2       172        70        96       196       211       275       263       223       221       258
 -1       737    6    0    1
 -2        96        21        70        71       111        90       275       269        94        93
 -1       738    6    0    1
 -2        70        21        96       196        90       111       275       221       244       258
 -1       739    6    0    1
 -2        45       195        99        95       237       226       276       234       227       104
 -1       740    6    0    1
 -2        99       195        45        46       226       237       276       266       259        53
 -1       741    6    0    1
 -2         9        45        99        95        52       276       105       102       234       104
 -1       742    6    0    1
 -2        99        45         9        46       276        52       105       266        53        51
 -1       743    6    0    1
 -2       123       170        72       171       277       209       218       267       181       210
 -1       744    6    0    1
 -2        42       170       123       171       178       277       125       179       181       267
 -1       745    6    0    1
 -2       170        42       123       195       178       125       277       228       251       231
 -1       746    6    0    1
 -2       170        70       123        72       222       217       277       209        79       218
 -1       747    6    0    1
 -2       123        70       170       195       217       222       277       231       232       228
 -1       748    6    0    1
 -2       120       146       195       122       278       272       233       140       268       257
 -1       749    6    0    1
 -2       146       120       195       145       278       233       272       154       235       236
 -1       750    6    0    1
 -2        39       146       120       122       158       278       133       142       268       140
 -1       751    6    0    1
 -2       146        39       120       145       158       133       278       154       159       235
 -1       752    6    0    1
 -2        46        99       170       174       266       213       279       264       214       191
 -1       753    6    0    1
 -2       170        99        46       195       213       266       279       228       226       259
 -1       754    6    0    1
 -2        18        46       170       174        62       279       189       193       264       191
 -1       755    6    0    1
 -2       170        46        18       195       279        62       189       228       259       256
 -1       756    6    0    1
 -2        70        30       170       172        78       187       222       211       186       183
 -1       757    6    0    1
 -2       170        30        70        72       187        78       222       209        75        79
 -1       758    6    0    1
 -2       122        45       146       195       280       271       268       257       237       272
 -1       759    6    0    1
 -2       146        45       122        49       271       280       268       261        61       260
 -1       760    6    0    1
 -2       122        15        45       195       138        67       280       257       253       237
 -1       761    6    0    1
 -2        45        15       122        49        67       138       280        61        69       260
 -3
    1PSTEP                         1           1           1          
    1PGM                1.000000E+00                                  
    1PGK                1.223986E+11                                  
    1PHID                         -1                                  
    1PSUBC                         0                                  
    1PMODE                         1                                  
  100CL  101 5.56812E+04         280                     2    1MODAL      1
 -4  DISP        4    1
 -5  D1          1    2    1    0
 -5  D2          1    2    2    0
 -5  D3          1    2    3    0
 -5  ALL         1    2    0    0    1ALL
 -1         1 0.00000E+00 0.00000E+00 0.00000E+00
 -1         2 0.00000E+00 0.00000E+00 0.00000E+00
 -1         3 0.00000E+00 0.00000E+00 0.00000E+00
 -1         4 0.00000E+00 0.00000E+00 0.00000E+00
 -1         5 2.96557E+02 4.04269E+01 6.09176E+02
 -1         6-2.59704E+02 4.03795E+01 6.09544E+02
 -1         7 2.60237E+02 3.96669E+01 6.09384E+02
 -1         8-2.95651E+02 3.96461E+01 6.08528E+02
 -1         9 0.00000E+00 0.00000E+00 0.00000E+00
 -1        10 0.00000E+00 0.00000E+00 0.00000E+00
 -1        11 0.00000E+00 0.00000E+00 0.00000E+00
 -1        12 0.00000E+00 0.00000E+00 0.00000E+00
 -1        13 0.00000E+00 0.00000E+00 0.00000E+00
 -1        14 0.00000E+00 0.00000E+00 0.00000E+00
 -1        15 0.00000E+00 0.00000E+00 0.00000E+00
 -1        16 0.00000E+00 0.00000E+00 0.00000E+00
 -1        17 0.00000E+00 0.00000E+00 0.00000E+00
 -1        18 0.00000E+00 0.00000E+00 0.00000E+00
 -1        19 0.00000E+00 0.00000E+00 0.00000E+00
 -1        20 0.00000E+00 0.00000E+00 0.00000E+00
 -1        21 1.78129E+01 3.94266E+01 5.92954E+02
 -1        22 1.47762E+02 3.92992E+01 5.98959E+02
 -1        23-1.11249E+02 4.00761E+01 5.99404E+02
 -1        24 2.80071E+02 3.83157E+01 6.08874E+02
 -1        25 2.87857E+02 3.89005E+01 6.08295E+02
 -1        26 2.70987E+02 3.96196E+01 6.07945E+02
 -1        27-1.88426E+01 3.98095E+01 5.91074E+02
 -1        28 1.10838E+02 4.02796E+01 5.99087E+02
 -1        29-1.47725E+02 3.91838E+01 5.98312E+02
 -1        30-2.80976E+02 3.85915E+01 6.06008E+02
 -1        31-2.71373E+02 4.06382E+01 6.07577E+02
 -1        32-2.87491E+02 3.79517E+01 6.06624E+02
 -1        33 2.54914E+02 1.83179E+01 2.72635E+02
 -1        34 1.66213E+02 5.61331E+00 1.08390E+02
 -1        35 2.91844E+02 2.86960E+01 4.45739E+02
 -1        36-2.26218E+02 1.70111E+01 2.72359E+02
 -1        37-1.46557E+02 8.18368E+00 1.07893E+02
 -1        38-2.55960E+02 2.96902E+01 4.46195E+02
 -1        39 2.27680E+02 1.76240E+01 2.71721E+02
 -1        40 1.46525E+02 8.05075E+00 1.07026E+02
 -1        41 2.56711E+02 2.96312E+01 4.46103E+02
 -1        42-2.56245E+02 1.79028E+01 2.72764E+02
 -1        43-1.66919E+02 6.18612E+00 1.07099E+02
 -1        44-2.91341E+02 2.89642E+01 4.45875E+02
 -1        45 0.00000E+00 0.00000E+00 0.00000E+00
 -1        46 0.00000E+00 0.00000E+00 0.00000E+00
 -1        47 0.00000E+00 0.00000E+00 0.00000E+00
 -1        48 0.00000E+00 0.00000E+00 0.00000E+00
 -1        49 0.00000E+00 0.00000E+00 0.00000E+00
 -1        50 0.00000E+00 0.00000E+00 0.00000E+00
 -1        51 0.00000E+00 0.00000E+00 0.00000E+00
 -1        52 0.00000E+00 0.00000E+00 0.00000E+00
 -1        53 0.00000E+00 0.00000E+00 0.00000E+00
 -1        54 0.00000E+00 0.00000E+00 0.00000E+00
 -1        55 0.00000E+00 0.00000E+00 0.00000E+00
 -1        56 0.00000E+00 0.00000E+00 0.00000E+00
 -1        57 0.00000E+00 0.00000E+00 0.00000E+00
 -1        58 0.00000E+00 0.00000E+00 0.00000E+00
 -1        59 0.00000E+00 0.00000E+00 0.00000E+00
 -1        60 0.00000E+00 0.00000E+00 0.00000E+00
 -1        61 0.00000E+00 0.00000E+00 0.00000E+00
 -1        62 0.00000E+00 0.00000E+00 0.00000E+00
 -1        63 0.00000E+00 0.00000E+00 0.00000E+00
 -1        64 0.00000E+00 0.00000E+00 0.00000E+00
 -1        65 0.00000E+00 0.00000E+00 0.00000E+00
 -1        66 0.00000E+00 0.00000E+00 0.00000E+00
 -1        67 0.00000E+00 0.00000E+00 0.00000E+00
 -1        68 0.00000E+00 0.00000E+00 0.00000E+00
 -1        69 0.00000E+00 0.00000E+00 0.00000E+00
 -1        70 2.04154E+00 3.92021E+01 5.94298E+02
 -1        71-1.20861E+02 3.94222E+01 5.99136E+02
 -1        72-1.37886E+02 3.88034E+01 5.99489E+02
 -1        73 1.20799E+02 3.92856E+01 5.98654E+02
 -1        74 1.37452E+02 3.89945E+01 5.98868E+02
 -1        75-2.07424E+02 3.83366E+01 6.03572E+02
 -1        76-2.14189E+02 3.90864E+01 6.04551E+02
 -1        77-7.63442E+01 3.94762E+01 5.93300E+02
 -1        78-1.30041E+02 3.89544E+01 6.00334E+02
 -1        79-6.59900E+01 3.89650E+01 5.95960E+02
 -1        80-8.13245E+00 3.95374E+01 5.92389E+02
 -1        81 1.98377E+02 3.87979E+01 6.04651E+02
 -1        82 1.88156E+02 3.97972E+01 6.05083E+02
 -1        83 4.93484E+01 3.97186E+01 5.93432E+02
 -1        84 5.89410E+01 3.88759E+01 5.94609E+02
 -1        85 1.29275E+02 3.87746E+01 6.00554E+02
 -1        86 2.05579E+02 3.86964E+01 6.04952E+02
 -1        87 2.14507E+02 3.95331E+01 6.05060E+02
 -1        88 7.58859E+01 3.91998E+01 5.94276E+02
 -1        89 6.74900E+01 3.89447E+01 5.94352E+02
 -1        90 9.24922E+00 3.92306E+01 5.92515E+02
 -1        91-1.99437E+02 3.92569E+01 6.04026E+02
 -1        92-1.88107E+02 4.02108E+01 6.05182E+02
 -1        93-5.76980E+01 3.88423E+01 5.95248E+02
 -1        94-4.94663E+01 3.92533E+01 5.94034E+02
 -1        95 1.50306E+01 1.78461E+01 2.69516E+02
 -1        96-1.05091E+02 2.96061E+01 4.43904E+02
 -1        97 1.41256E+02 2.88440E+01 4.43702E+02
 -1        98 6.87766E+01 6.93365E+00 1.08984E+02
 -1        99-4.84050E+01 6.92903E+00 1.08719E+02
 -1       100 5.61104E+01 2.51363E+00 4.40771E+01
 -1       101 1.94880E+01 2.95426E+00 4.84097E+01
 -1       102 9.94711E+00 6.85713E+00 1.10173E+02
 -1       103 5.19346E+01 1.20791E+01 1.84831E+02
 -1       104-2.52172E+01 1.17493E+01 1.85408E+02
 -1       105-8.26843E+00 2.68452E+00 4.78955E+01
 -1       106-4.46737E+01 2.99212E+00 4.37957E+01
 -1       107-3.81925E+01 2.37395E+01 3.57192E+02
 -1       108-1.65537E+02 2.36412E+01 3.59431E+02
 -1       109-8.37055E+01 1.72974E+01 2.70227E+02
 -1       110 1.84796E+01 2.91587E+01 4.41526E+02
 -1       111-4.41914E+01 3.45144E+01 5.22704E+02
 -1       112-1.81255E+02 3.48808E+01 5.28362E+02
 -1       113 7.16716E+01 2.35929E+01 3.56971E+02
 -1       114 8.03005E+01 3.43634E+01 5.22594E+02
 -1       115 1.17735E+02 1.77267E+01 2.69256E+02
 -1       116 2.00068E+02 2.35525E+01 3.59157E+02
 -1       117 2.17874E+02 3.46366E+01 5.27956E+02
 -1       118 1.49722E+02 1.20285E+01 1.86310E+02
 -1       119-1.23769E+02 1.18126E+01 1.85665E+02
 -1       120-1.50492E+01 1.74921E+01 2.68604E+02
 -1       121 1.04714E+02 2.96610E+01 4.43934E+02
 -1       122 4.87213E+01 6.97122E+00 1.08485E+02
 -1       123-1.41031E+02 2.89718E+01 4.43875E+02
 -1       124-6.95050E+01 7.07478E+00 1.08700E+02
 -1       125-2.00366E+02 2.38876E+01 3.59283E+02
 -1       126-7.18229E+01 2.31681E+01 3.56814E+02
 -1       127-1.17224E+02 1.77872E+01 2.70554E+02
 -1       128-2.17472E+02 3.45354E+01 5.27728E+02
 -1       129-1.49006E+02 1.22392E+01 1.85257E+02
 -1       130-5.16700E+01 1.19800E+01 1.85107E+02
 -1       131-5.64074E+01 2.59992E+00 4.35112E+01
 -1       132 1.66383E+02 2.36516E+01 3.59316E+02
 -1       133 8.33003E+01 1.76907E+01 2.70034E+02
 -1       134 3.78652E+01 2.38490E+01 3.56721E+02
 -1       135 1.81482E+02 3.46523E+01 5.28187E+02
 -1       136 4.30003E+01 3.47092E+01 5.22148E+02
 -1       137-1.80066E+01 2.90265E+01 4.42775E+02
 -1       138 9.12658E+00 2.99064E+00 4.76843E+01
 -1       139-1.07790E+01 7.06703E+00 1.11082E+02
 -1       140 2.53313E+01 1.18102E+01 1.84819E+02
 -1       141 4.46967E+01 2.93941E+00 4.36324E+01
 -1       142 1.23072E+02 1.15952E+01 1.84546E+02
 -1       143-8.02824E+01 3.43026E+01 5.22063E+02
 -1       144-2.01462E+01 2.79313E+00 4.76153E+01
 -1       145 2.42080E+02 1.73848E+01 2.70587E+02
 -1       146 1.49971E+02 7.61327E+00 1.06176E+02
 -1       147 2.66625E+02 2.91829E+01 4.46317E+02
 -1       148 2.83241E+02 2.87007E+01 4.46070E+02
 -1       149 1.61305E+02 6.06610E+00 1.07657E+02
 -1       150 9.09024E+01 2.86963E+00 4.33031E+01
 -1       151 9.28253E+01 1.93294E+00 4.23628E+01
 -1       152 1.47386E+02 7.16101E+00 1.04107E+02
 -1       153 8.46611E+01 3.11015E+00 4.29870E+01
 -1       154 2.00356E+02 1.22835E+01 1.83425E+02
 -1       155 2.08501E+02 1.11887E+01 1.84146E+02
 -1       156 8.55911E+01 3.76565E+00 4.15869E+01
 -1       157 2.15010E+02 1.16563E+01 1.85439E+02
 -1       158 1.96843E+02 1.20674E+01 1.84910E+02
 -1       159 2.35499E+02 1.75343E+01 2.70286E+02
 -1       160 2.52040E+02 2.36727E+01 3.59623E+02
 -1       161 2.58877E+02 2.34085E+01 3.59390E+02
 -1       162 2.65658E+02 3.45844E+01 5.29421E+02
 -1       163 2.75461E+02 3.41544E+01 5.29383E+02
 -1       164 2.74469E+02 2.88219E+01 4.45390E+02
 -1       165 2.83743E+02 3.38269E+01 5.29338E+02
 -1       166 2.66877E+02 2.30686E+01 3.58921E+02
 -1       167 2.74034E+02 2.32522E+01 3.59553E+02
 -1       168 2.47220E+02 1.76858E+01 2.71559E+02
 -1       169 2.91763E+02 3.45527E+01 5.29264E+02
 -1       170-2.41587E+02 1.77663E+01 2.72476E+02
 -1       171-2.82455E+02 2.92998E+01 4.46679E+02
 -1       172-2.66800E+02 2.92319E+01 4.46911E+02
 -1       173-1.62358E+02 7.12515E+00 1.07086E+02
 -1       174-1.54253E+02 7.73701E+00 1.07238E+02
 -1       175-2.15295E+02 1.22488E+01 1.85841E+02
 -1       176-9.31941E+01 2.20245E+00 4.13796E+01
 -1       177-2.09764E+02 1.18679E+01 1.84469E+02
 -1       178-2.48252E+02 1.74701E+01 2.71903E+02
 -1       179-2.74627E+02 2.37474E+01 3.60085E+02
 -1       180-2.91166E+02 3.44048E+01 5.29034E+02
 -1       181-2.66159E+02 2.38393E+01 3.61112E+02
 -1       182-2.50955E+02 2.34404E+01 3.59826E+02
 -1       183-2.58010E+02 2.34085E+01 3.60433E+02
 -1       184-2.34446E+02 1.75403E+01 2.72225E+02
 -1       185-2.65487E+02 3.50099E+01 5.29635E+02
 -1       186-2.75853E+02 3.44954E+01 5.28192E+02
 -1       187-2.72754E+02 2.88859E+01 4.46710E+02
 -1       188-8.93867E+01 3.52046E+00 4.24486E+01
 -1       189-1.48269E+02 6.62185E+00 1.06079E+02
 -1       190-1.98400E+02 1.21426E+01 1.85090E+02
 -1       191-2.03893E+02 1.25156E+01 1.84397E+02
 -1       192-8.64043E+01 3.64379E+00 4.19627E+01
 -1       193-8.94826E+01 2.79546E+00 4.31338E+01
 -1       194-2.83258E+02 3.39648E+01 5.27976E+02
 -1       195-3.83836E+01 1.23028E+01 1.84612E+02
 -1       196 5.62277E+01 2.32020E+01 3.57772E+02
 -1       197 3.44962E+01 2.98454E+00 4.67587E+01
 -1       198 3.34187E+01 7.10261E+00 1.10955E+02
 -1       199 7.50490E+01 1.46547E+01 2.25152E+02
 -1       200 3.37970E+01 2.06105E+01 3.13218E+02
 -1       201 5.42338E+01 9.58845E+00 1.46372E+02
 -1       202 1.76494E+02 2.34781E+01 3.58475E+02
 -1       203 1.81827E+02 2.93409E+01 4.45436E+02
 -1       204 8.14362E+01 2.61104E+01 4.00435E+02
 -1       205 1.52695E+02 2.60960E+01 4.01680E+02
 -1       206 1.43344E+02 2.03588E+01 3.14422E+02
 -1       207 5.39236E+01 3.44051E+01 5.22237E+02
 -1       208 1.14491E+02 3.47236E+01 5.25139E+02
 -1       209-1.98756E+02 2.89518E+01 4.45602E+02
 -1       210-2.08738E+02 3.39915E+01 5.26966E+02
 -1       211-1.25178E+02 3.42306E+01 5.24866E+02
 -1       212-1.92712E+02 3.48302E+01 5.27755E+02
 -1       213-1.30919E+02 1.17756E+01 1.85018E+02
 -1       214-9.30567E+01 7.29327E+00 1.07958E+02
 -1       215 5.47198E+01 2.99786E+00 4.45799E+01
 -1       216 1.00282E+02 6.82970E+00 1.07901E+02
 -1       217-7.07275E+01 3.42535E+01 5.22007E+02
 -1       218-1.41155E+02 3.42620E+01 5.24750E+02
 -1       219-8.47613E+00 2.89493E+01 4.40678E+02
 -1       220 1.91467E+01 2.04095E+01 3.12724E+02
 -1       221 3.18271E+01 3.15222E+01 4.82320E+02
 -1       222-1.24745E+02 2.87501E+01 4.43242E+02
 -1       223-8.17329E+01 2.62912E+01 4.00465E+02
 -1       224-7.77580E+01 2.08048E+01 3.13327E+02
 -1       225-9.55195E+01 1.74670E+01 2.69758E+02
 -1       226-4.77344E+01 9.54356E+00 1.45833E+02
 -1       227-1.62733E+01 1.47669E+01 2.26317E+02
 -1       228-1.22261E+02 1.50673E+01 2.26766E+02
 -1       229 5.90346E+01 7.47637E+00 1.09562E+02
 -1       230 1.84608E+01 9.66709E+00 1.46795E+02
 -1       231-8.82402E+01 2.06079E+01 3.14178E+02
 -1       232-3.12640E+01 2.59285E+01 3.98810E+02
 -1       233-2.82949E+01 1.48061E+01 2.26095E+02
 -1       234 4.52819E+00 7.06120E+00 1.11648E+02
 -1       235 9.54135E+01 1.75610E+01 2.69847E+02
 -1       236 6.51596E+01 1.43582E+01 2.26458E+02
 -1       237-9.18914E+00 5.12797E+00 7.80369E+01
 -1       238-8.39351E-03 1.75619E+01 2.69136E+02
 -1       239 2.08507E+02 3.42458E+01 5.27806E+02
 -1       240 1.63305E+02 3.13869E+01 4.86392E+02
 -1       241 9.86435E+01 3.14775E+01 4.84677E+02
 -1       242 1.59104E+02 2.60772E+01 4.02292E+02
 -1       243 1.40911E+02 3.42562E+01 5.24917E+02
 -1       244 4.08987E+01 3.16536E+01 4.82790E+02
 -1       245 9.71915E+01 2.62425E+01 4.00692E+02
 -1       246 2.07293E+02 2.88640E+01 4.45286E+02
 -1       247 1.49084E+02 2.04928E+01 3.13764E+02
 -1       248-1.06630E+02 6.98927E+00 1.07440E+02
 -1       249-5.67017E+01 9.52523E+00 1.45613E+02
 -1       250-9.60086E+01 9.45093E+00 1.44554E+02
 -1       251-1.27898E+02 1.50572E+01 2.27675E+02
 -1       252-3.48534E+01 2.79132E+00 4.55260E+01
 -1       253-1.43754E+01 4.99334E+00 7.75009E+01
 -1       254-3.49312E+01 5.14904E+00 7.54644E+01
 -1       255-5.45133E+01 2.93917E+00 4.28458E+01
 -1       256-5.96559E+01 5.33939E+00 7.34767E+01
 -1       257 8.74610E+00 9.55423E+00 1.46526E+02
 -1       258-1.76712E+01 2.62209E+01 3.99739E+02
 -1       259-3.27337E+01 5.06732E+00 7.65104E+01
 -1       260 2.77892E+01 2.97820E+00 4.53159E+01
 -1       261 5.15234E+01 2.69517E+00 4.35838E+01
 -1       262 1.92149E+02 3.45368E+01 5.27768E+02
 -1       263-1.81550E+02 2.94189E+01 4.45533E+02
 -1       264-5.10587E+01 3.00209E+00 4.42184E+01
 -1       265 1.05538E+02 6.61997E+00 1.08385E+02
 -1       266-2.74952E+01 3.01104E+00 4.60844E+01
 -1       267-2.06756E+02 2.91014E+01 4.45548E+02
 -1       268 9.32570E+01 7.11011E+00 1.07125E+02
 -1       269-1.14589E+02 3.47191E+01 5.25312E+02
 -1       270 1.24309E+02 3.40140E+01 5.25082E+02
 -1       271 3.07425E+01 3.46889E+00 4.51748E+01
 -1       272 4.75764E+01 9.24955E+00 1.45786E+02
 -1       273 1.40622E+02 1.19677E+01 1.84754E+02
 -1       274-1.02468E+02 2.35329E+01 3.57911E+02
 -1       275-5.28405E+01 3.42919E+01 5.22612E+02
 -1       276-1.29124E+01 3.04333E+00 4.78271E+01
 -1       277-1.90084E+02 2.35596E+01 3.59657E+02
 -1       278 7.30351E+01 1.19294E+01 1.84782E+02
 -1       279-9.70089E+01 7.42265E+00 1.07189E+02
 -1       280 1.13973E+01 3.11837E+00 4.72317E+01
 -3
    1PSTEP                         2           1           1          
    1PGM                1.000000E+00                                  
    1PGK                1.223986E+11                                  
    1PHID                         -1                                  
    1PSUBC                         0                                  
    1PMODE                         1                                  
  100CL  101 5.56812E+04         280                     2    1MODAL      1
 -4  STRESS      6    1
 -5  SXX         1    4    1    1
 -5  SYY         1    4    2    2
 -5  SZZ         1    4    3    3
 -5  SXY         1    4    1    2
 -5  SYZ         1    4    2    3
 -5  SZX         1    4    3    1
 -1         1 1.50691E+07-2.25924E+04-2.07452E+05 4.14418E+05-1.96515E+05 1.97668E+06
 -1         2-1.32496E+07-2.48621E+03 2.04340E+05-1.62193E+05-1.81961E+05 1.89967E+06
 -1         3 1.32579E+07-2.98257E+04-1.84220E+05-1.87044E+05 1.71226E+05 1.87207E+06
 -1         4-1.51106E+07 5.11268E+04 1.80312E+05 4.27847E+05 2.21166E+05 1.86740E+06
 -1         5-3.07550E+05-5.83183E+04-4.43629E+05-2.44445E+04 2.92437E+04-3.48013E+05
 -1         6 2.75227E+05 3.54965E+04 4.48114E+05-4.80832E+03 4.49798E+04-3.36502E+05
 -1         7-3.00902E+05-1.76245E+03-4.28281E+05 1.03600E+03-5.02103E+03-3.56680E+05
 -1         8 3.45862E+05 9.00226E+04 4.35917E+05-6.31134E+04-2.27236E+04-3.46983E+05
 -1         9 1.02633E+06-1.22935E+03-2.38935E+04 2.00523E+05-9.38144E+02 3.42197E+06
 -1        10 6.59355E+06-2.19538E-01-1.89786E+00 1.60085E+05-3.22219E-01 3.03954E+06
 -1        11-4.59830E+06-1.51318E-01 1.79586E+00 1.76968E+05-1.71958E-01 2.98649E+06
 -1        12 1.46779E+07-7.80113E+03 9.82070E+04 1.22165E+05 2.89530E+03 2.58191E+06
 -1        13 1.64919E+07-4.10308E-01-1.53043E+00 1.41560E+05-4.67260E-01 2.54697E+06
 -1        14 1.52426E+07-2.87136E-01-1.13613E+00 2.45531E+05 6.31989E-01 2.51887E+06
 -1        15-1.01013E+06-3.58846E+03-5.85481E+03 1.92812E+05 2.93145E+04 3.36718E+06
 -1        16 4.71398E+06 1.15365E-02-1.77489E+00 1.95554E+05-1.61236E-01 2.96593E+06
 -1        17-6.68811E+06 8.30521E-02 1.79775E+00 1.48452E+05 2.60001E-02 2.94209E+06
 -1        18-1.35125E+07 5.32100E+04-1.57689E+05 2.25599E+05-6.70359E+04 2.12459E+06
 -1        19-1.58016E+07 3.71605E-01 1.46323E+00 2.05658E+05-3.51802E-01 2.51820E+06
 -1        20-1.62242E+07 5.77346E-01 8.16227E-01 1.72825E+05 2.68162E-01 2.42278E+06
 -1        21-1.35315E+05-2.78986E+04-1.80853E+03 1.94376E+04-4.59259E+04 5.36360E+05
 -1        22-1.90614E+05-4.29457E+03-6.48891E+05-2.45452E+02 1.27882E+04 8.85420E+04
 -1        23 1.88729E+05-4.39256E+04 6.63589E+05 1.15868E+03-1.13947E+04 1.22756E+05
 -1        24-2.05815E+05 3.24103E+04-4.44036E+05 5.02512E+04-1.46920E+04-4.18621E+05
 -1        25-2.99320E+05-8.44485E+04-3.56825E+05 3.48405E+04 5.64911E+03-2.73112E+05
 -1        26-2.78780E+05 5.40472E+04-3.36421E+05 7.34502E+02-2.83119E+03-2.45298E+05
 -1        27 8.33194E+03 1.29506E+04-3.69213E+04-1.17058E+04 1.73728E+04 4.52084E+05
 -1        28-1.50171E+05 4.41136E+04-7.32399E+05-2.40418E+04 3.94214E+03 8.51230E+04
 -1        29 1.42494E+05-1.81232E+04 6.98129E+05-5.05918E+03 5.21076E+03 9.25456E+04
 -1        30 1.77596E+05-1.36791E+05 3.24838E+05 6.60830E+04-2.43635E+04-2.16497E+05
 -1        31 2.23574E+05-7.15184E+04 2.92062E+05 1.38800E+04-2.07542E+04-1.86874E+05
 -1        32 2.47576E+05 4.21824E+04 3.00808E+05 9.80866E+03 9.56435E+03-1.91220E+05
 -1        33 4.71740E+06-2.94542E+04-1.38286E+05 4.19770E+04-2.36149E+04 6.22070E+05
 -1        34 1.01965E+07 5.81385E+04-1.04516E+05 1.45746E+05-1.35387E+05 7.72912E+05
 -1        35 1.66573E+06 1.15673E+04-1.48711E+05-6.78259E+02-1.94722E+03 1.38965E+05
 -1        36-3.96016E+06 7.19919E+03 1.01185E+04 4.49707E+04 3.08465E+03 4.25069E+05
 -1        37-9.04865E+06-8.29789E+04 1.41010E+05-2.51540E+04-1.16148E+05 7.37465E+05
 -1        38-1.33942E+06-3.25571E+04 1.32781E+05 1.92078E+04-2.76954E+04 8.82227E+04
 -1        39 4.15512E+06 1.29530E+04-3.89945E+03 1.61293E+04-5.34606E+04 4.42226E+05
 -1        40 9.10712E+06 6.88572E+04-1.63279E+05 3.21971E+04 1.12233E+04 6.31389E+05
 -1        41 1.30226E+06 4.61213E+04-1.34971E+05-1.47559E+04 1.07900E+03 9.87123E+04
 -1        42-4.81271E+06-1.60350E+04 4.03089E+04 7.10185E+04-7.54656E+04 5.62794E+05
 -1        43-1.02497E+07-3.63023E+04 1.39425E+05 6.44374E+04 7.78271E+04 6.29673E+05
 -1        44-1.57626E+06-2.41431E+04 1.80048E+05 5.48165E+04-1.33472E+04 1.55893E+05
 -1        45-1.01339E+05-4.05437E+02-3.17297E+03 1.55127E+05-7.57440E+04 3.46079E+06
 -1        46-5.13546E+06 1.93638E+04-1.90962E+05 9.78451E+04 6.39520E+04 3.21034E+06
 -1        47 5.45845E+06 3.26861E+03 4.67222E+05 3.54064E+05 1.03742E+05 3.27575E+06
 -1        48-5.20494E+06-2.64319E+04-2.58706E+05 1.68392E+05-4.60883E+04 3.04483E+06
 -1        49 4.74229E+06 2.36556E+04 6.15925E+04 2.04263E+05 4.26251E+04 2.86083E+06
 -1        50-8.66417E+06 6.36625E+03-7.88799E+04 4.77017E+04-3.62583E+04 2.55835E+06
 -1        51-1.84974E+06-1.54247E-01 1.67629E+00 1.78482E+05-1.10708E-01 3.16958E+06
 -1        52 5.32359E+05-1.64378E-01-1.15674E+05 1.93562E+05-6.24836E+03 3.41244E+06
 -1        53-2.50310E+06 3.39424E+03 6.21584E+04 2.28529E+05 3.27754E+04 3.26380E+06
 -1        54 2.95711E+06 2.47273E+03 1.33806E+05 1.55679E+05 6.81395E+04 3.34332E+06
 -1        55 9.84880E+06-3.56291E+03 8.61180E+04 2.99488E+05-4.12794E+04 2.63596E+06
 -1        56 2.80071E+06 7.45835E+03 1.13510E+05 3.09462E+05-6.04851E+04 3.45018E+06
 -1        57 1.02185E+07-9.88193E+03 2.29493E+05 1.72720E+05 1.09807E+05 2.90967E+06
 -1        58 6.70921E+06-1.06711E+04-2.23195E+00 1.71873E+05-1.09706E+05 3.02531E+06
 -1        59 9.79178E+06 1.16783E-01-1.04725E+00 1.59894E+05 3.85591E-01 2.67861E+06
 -1        60 8.82029E+06-5.92512E+03 6.99494E+04 1.67268E+04 3.20135E+04 2.48482E+06
 -1        61 1.76847E+06 6.76116E+03 7.02525E+04 2.99338E+05 3.85076E+04 3.05962E+06
 -1        62-9.46784E+06 3.37515E+04-1.89426E+05 4.23654E+05 7.78384E+04 2.75921E+06
 -1        63-5.29630E+06-3.57983E-02 1.99757E+00 2.30183E+05 1.82805E-01 3.15770E+06
 -1        64-3.22495E+06-1.96349E+04-5.27383E+04 1.87215E+05-3.61878E+04 3.17086E+06
 -1        65-9.84286E+06 7.32882E+03-1.06797E+05 2.70919E+05 4.97353E+04 2.48115E+06
 -1        66-2.65901E+06 6.65639E-02 2.00826E+00 2.20031E+05 8.02341E-02 3.26371E+06
 -1        67-5.27873E+05 7.66165E-02 5.92248E+04 2.10954E+05 4.64066E+02 3.34140E+06
 -1        68-8.97226E+06 1.82629E+02-1.92172E+05 3.21964E+04-9.59955E+04 2.59698E+06
 -1        69 2.00880E+06 3.37430E-02-1.82578E+00 1.98657E+05-1.46896E-01 3.10061E+06
 -1        70 2.35488E+05 1.04251E+04 2.18363E+04 1.84087E+04-3.62449E+04 7.03429E+05
 -1        71-9.05846E+03-6.36971E+04 9.38866E+05-3.05635E+04 3.37255E+04 9.04090E+04
 -1        72 1.08315E+05 5.00909E+04 8.30624E+05 7.73496E+04-9.16516E+03 2.98545E+05
 -1        73 2.12925E+04 9.71783E+04-1.00559E+06-2.11747E+03 1.75662E+04 1.22763E+05
 -1        74 5.37926E+04-4.15677E+04-9.79039E+05-1.37262E+04-4.16754E+03 1.45122E+05
 -1        75 1.43389E+05-2.30819E+04 5.69614E+05 1.19578E+05 3.99223E+03 7.18974E+04
 -1        76 5.63892E+04 9.57825E+04 7.14555E+05 6.47710E+03-9.89831E+03-3.45411E+04
 -1        77 1.05533E+05 2.20794E+04 6.32544E+05-3.05501E+03-4.95018E+04 2.73377E+05
 -1        78 3.38602E+05-5.84980E+04 4.68422E+05-3.45260E+03-3.87309E+04 2.77112E+05
 -1        79 3.69398E+05 2.80528E+04 5.11172E+05 2.49189E+04-7.79383E+04 4.87828E+05
 -1        80 5.55514E+04 2.42959E+04 2.06060E+04-1.46163E+04-6.69876E+04 4.89970E+05
 -1        81-3.92114E+04 1.00153E+05-8.21660E+05 9.68883E+03-9.24128E+03-1.23137E+04
 -1        82-5.37528E+04 3.78988E+04-7.98461E+05-1.30909E+04 3.36684E+04-9.39000E+04
 -1        83-8.39594E+04 7.82004E+04-6.88381E+05 8.76519E+03 2.28443E+04 2.61567E+05
 -1        84-1.02837E+05 3.73466E+04-5.68028E+05 1.68467E+04-9.44231E+04 3.44423E+05
 -1        85-5.43841E+03 5.27319E+03-5.83049E+05 7.69224E+04 8.36982E+03 2.57560E+05
 -1        86-3.54939E+03-4.00572E+04-7.58611E+05 1.61866E+04 2.80605E+04-1.37905E+05
 -1        87-1.83038E+04-6.71469E+04-8.14035E+05-1.02524E+04-2.90254E+04-5.29823E+04
 -1        88-1.66049E+05-2.39251E+04-6.08072E+05-5.18052E+03-6.21445E+04 3.52000E+05
 -1        89 6.93536E+02-7.85494E+03-6.12972E+05 4.19880E+04 1.35910E+05 4.95080E+05
 -1        90-1.40867E+04-8.97691E+03 1.56507E+05 6.03437E+04 1.81958E+04 4.88227E+05
 -1        91 8.22659E+03-1.31771E+05 6.57080E+05-1.16252E+04-2.09689E+04-2.94854E+03
 -1        92 5.16413E+04-6.78964E+02 7.85695E+05-3.54584E+04 1.44851E+04-9.68980E+04
 -1        93 8.37688E+04 1.37931E+03 5.79579E+05 1.53717E+04 1.05769E+05 2.49440E+05
 -1        94 1.59703E+05-6.51891E+04 6.15255E+05 2.25098E+04-2.79341E+04 2.89109E+05
 -1        95 1.57788E+05-6.38867E+03 8.02775E+04 9.92335E+04-4.34895E+04 3.57348E+06
 -1        96-1.04585E+06-2.54867E+04 2.82775E+05 4.14413E+04 1.06503E+04 1.42725E+06
 -1        97 1.17414E+06 1.23756E+04-2.40453E+05-3.90244E+04 3.01650E+04 1.36492E+06
 -1        98 4.81450E+06 4.03923E+04 2.09267E+05-1.08363E+05 5.37902E+04 2.86791E+06
 -1        99-3.56579E+06 1.74287E+04-3.32817E+05 8.67475E+04 2.86042E+04 2.90207E+06
 -1       100 9.47644E+06 1.47917E+04 8.91602E+04 1.10557E+05-5.62959E+04 2.32758E+06
 -1       101 2.68126E+06 2.74803E+04 2.87401E+05 7.89137E+04 2.29375E+04 3.09264E+06
 -1       102 6.01209E+05 1.07549E+04 8.03810E+03 2.16204E+05 8.52222E+03 3.45698E+06
 -1       103 2.27156E+06 1.06888E+04-4.15306E+04 1.32012E+05-4.52231E+04 3.15634E+06
 -1       104-1.32865E+06 1.32676E+04-1.77213E+04 3.80099E+04-4.80892E+03 3.22120E+06
 -1       105-1.09630E+06 2.83485E+04-3.16322E+05 1.18918E+05 1.16353E+04 3.11887E+06
 -1       106-7.90380E+06 1.68150E+04-9.01035E+04 2.86641E+04-6.91610E+04 2.28797E+06
 -1       107-7.43914E+05-2.22538E+04 6.15128E+04-9.69834E+03-3.96360E+04 2.51184E+06
 -1       108-2.27292E+06-1.90381E+04 2.23178E+05-2.99565E+03-7.65190E+04 9.91836E+05
 -1       109-2.31626E+06 1.65122E+04 1.13739E+05-5.36005E+04-6.36864E+04 2.27269E+06
 -1       110 1.11291E+05-1.46263E+04 1.84179E+04 2.86011E+04 2.14761E+04 2.02146E+06
 -1       111-4.72725E+05-2.58682E+04 3.04569E+05 1.84017E+04-9.44516E+02 9.61736E+05
 -1       112-4.40137E+05 1.32484E+04 3.48301E+05 5.02332E+04 5.10304E+04 4.87009E+05
 -1       113 1.03011E+06-1.43372E+03 5.44624E+04 3.40767E+04 4.03507E+02 2.46070E+06
 -1       114 4.24597E+05 3.53664E+03-3.25070E+05 1.25001E+04-2.31041E+04 9.82574E+05
 -1       115 2.70747E+06-2.42160E+04-1.24782E+05 7.08135E+03-4.75795E+04 2.30743E+06
 -1       116 2.66141E+06-1.86926E+04-2.57695E+05 2.32641E+04-4.63714E+04 1.09448E+06
 -1       117 4.50921E+05-1.52673E+04-3.38277E+05-6.30414E+04 5.05611E+04 4.63251E+05
 -1       118 5.12760E+06 9.52264E+03 1.82633E+04-1.04857E+05 2.72964E+04 1.67348E+06
 -1       119-4.15483E+06-3.46767E+03-1.57340E+05 1.69406E+05 6.99784E+04 1.58916E+06
 -1       120-3.44820E+05-2.47138E+03 4.12299E+04 9.37262E+04-9.24058E+03 3.64340E+06
 -1       121 9.38937E+05 3.21809E+04-3.15727E+05-3.83622E+03 1.93074E+04 1.36478E+06
 -1       122 3.29310E+06-2.06006E+04 4.08380E+05 1.57965E+05 6.35945E+03 2.87706E+06
 -1       123-1.18347E+06 6.72659E+03 3.02787E+05-2.88279E+04 4.49938E+04 1.39512E+06
 -1       124-4.59977E+06 1.04433E+03-3.72502E+05-8.07346E+04 3.50092E+03 2.92355E+06
 -1       125-2.70904E+06 2.81403E+04 2.14597E+05-3.83998E+04 2.86955E+04 9.88680E+05
 -1       126-9.78847E+05-4.98690E+03 1.25702E+04 9.45713E+04 6.75634E+04 2.45474E+06
 -1       127-2.85999E+06-1.05871E+04 1.66396E+05-2.31923E+03-2.51175E+04 2.30187E+06
 -1       128-4.43720E+05 3.11904E+04 3.36038E+05-7.98208E+04-2.53815E+04 4.55103E+05
 -1       129-5.09617E+06-3.45122E+04-1.81730E+05-1.29677E+04-1.30261E+05 1.73191E+06
 -1       130-2.10904E+06-6.21363E+03 3.31235E+04 5.91128E+04 1.75957E+04 3.17991E+06
 -1       131-9.48542E+06 2.51404E+04-1.31722E+05 1.63931E+05 1.13104E+05 2.31958E+06
 -1       132 2.30267E+06 9.50686E+03-2.10035E+05 1.97668E+04 6.33084E+04 9.23554E+05
 -1       133 1.94462E+06-7.33712E+03-1.24678E+05-1.03660E+05 6.77576E+03 2.28434E+06
 -1       134 6.33128E+05 2.82138E+04-4.05412E+04 2.50863E+04 3.38357E+04 2.51898E+06
 -1       135 4.09725E+05-3.75080E+03-3.42407E+05 4.07834E+04-3.44367E+04 4.30752E+05
 -1       136 4.32958E+05 1.75719E+04-3.61948E+05-2.09609E+04 9.79655E+03 9.07840E+05
 -1       137-1.51735E+05 3.64952E+03 3.01420E+03 5.44042E+04 6.60848E+04 2.04545E+06
 -1       138 1.09361E+06-5.84230E+03 3.35585E+05 1.71549E+05 5.72122E+04 3.10510E+06
 -1       139-6.01961E+05-4.41457E+03 8.88714E+03 9.73545E+04 2.59837E+04 3.48560E+06
 -1       140 1.16975E+06-1.31920E+04 3.83035E+04 8.84473E+04-2.78077E+04 3.24988E+06
 -1       141 7.88756E+06-2.86422E+04 1.17087E+05-6.04552E+04 1.04950E+05 2.28585E+06
 -1       142 4.15565E+06-1.08784E+04 2.66221E+05 7.42457E+04-1.63542E+05 1.58205E+06
 -1       143-4.85849E+05-1.42526E+04 2.94779E+05 3.72021E+04 4.47602E+04 9.04884E+05
 -1       144-2.76174E+06-1.25623E+04-3.60450E+05 8.85265E+04 1.41466E+04 3.12889E+06
 -1       145 5.09396E+06 2.39293E+04 9.01312E+03 3.34616E+05-7.38642E+03 7.22191E+05
 -1       146 8.94950E+06-2.73395E+04 2.61707E+05 1.09109E+05-6.51004E+04 1.20378E+06
 -1       147 1.12243E+06 3.46394E+04-6.12208E+04 7.79224E+04 1.89727E+04 2.33809E+05
 -1       148 1.25609E+06-1.21426E+04 6.72113E+04 1.18086E+05 2.20614E+04 1.04720E+05
 -1       149 9.42586E+06 6.76493E+04 2.56292E+05 5.83700E+04 9.44153E+04 2.01756E+05
 -1       150 1.21329E+07 6.63289E+04 3.21857E+05-1.09860E+05 1.02211E+05 1.08478E+06
 -1       151 1.27295E+07 3.17130E+04 9.48029E+04 3.14159E+05-2.48488E+04 1.04535E+06
 -1       152 9.68315E+06 5.60400E+04 3.93749E+05 1.93275E+05-2.39148E+04 1.51039E+06
 -1       153 1.20908E+07-1.49837E+04 1.85849E+05 2.65396E+05-8.31728E+04 1.98604E+06
 -1       154 7.13737E+06 1.54925E+04 2.47014E+05 2.82913E+05 7.91320E+04 1.15548E+06
 -1       155 7.31776E+06 4.08605E+04-5.89141E+04 4.43026E+03-1.37573E+05-5.81248E+04
 -1       156 1.15171E+07 1.71948E+04 4.79550E+04 7.28765E+04 1.66439E+04 1.18790E+06
 -1       157 6.77000E+06 1.53596E+04 3.36862E+05 1.38424E+05 1.40681E+05 3.50110E+05
 -1       158 6.69366E+06-1.60417E+04 1.32316E+05 1.69967E+05-9.87570E+04 6.56855E+05
 -1       159 4.16649E+06 9.56739E+03-4.70043E+04 1.87157E+05 2.02372E+04 6.39635E+05
 -1       160 2.31438E+06 2.29115E+04-7.35246E+04 7.32030E+04 1.74410E+04 2.61637E+05
 -1       161 2.51337E+06 1.38179E+04-1.06461E+05 1.90108E+05-1.13731E+04 4.86800E+05
 -1       162 2.89906E+05 1.95377E+03-5.69948E+04 1.78903E+04-3.54990E+03-7.41057E+04
 -1       163 4.41547E+05 6.14168E+04-2.44600E+05 7.89473E+04 2.75529E+04-4.56367E+04
 -1       164 1.51962E+06 3.41120E+04-1.00638E+05 9.96522E+04 2.20566E+04 1.67539E+05
 -1       165 4.28836E+05-2.41882E+04-8.41969E+04 5.54671E+04-1.02408E+04-1.79846E+05
 -1       166 2.62158E+06 1.58362E+04-2.73910E+04 1.24913E+05 1.33447E+04 4.12966E+05
 -1       167 2.85383E+06-2.90900E+04-1.34289E+05 1.36037E+05-3.25231E+04 3.83359E+05
 -1       168 4.94386E+06-3.73262E+04-1.41716E+05 2.30612E+05-3.20425E+04 4.54619E+05
 -1       169 3.43113E+05-4.28263E+04-4.15676E+04 8.65599E+04 2.83106E+04-8.12284E+04
 -1       170-4.62248E+06 3.20214E+03 1.53499E+05 2.86322E+05 2.95216E+03 8.04804E+05
 -1       171-1.19744E+06 8.84963E+03-4.00383E+04 8.27118E+04-1.45966E+04 5.52698E+04
 -1       172-1.43767E+06-4.16200E+04 1.53258E+05 1.52401E+04-1.84216E+04 2.29152E+05
 -1       173-9.77843E+06-7.31481E+04-7.12524E+04 1.71807E+05 5.37929E+03 5.47775E+05
 -1       174-8.95447E+06-5.37578E+04-2.46218E+05 2.91225E+05 6.95680E+04 2.53157E+05
 -1       175-7.02414E+06-3.50294E+04-1.24814E+05 2.05244E+05-1.11920E+05 5.28197E+05
 -1       176-1.28536E+07-4.29863E+04-7.29653E+03 3.30975E+05 7.51916E+04 1.05937E+06
 -1       177-7.07989E+06-6.38423E+02 3.68316E+04 5.45290E+04 1.34175E+05 8.08580E+05
 -1       178-4.44284E+06 5.45991E+03 1.05638E+05 1.99815E+05-1.48594E+04 5.23490E+05
 -1       179-2.69095E+06-1.10890E+04 8.31423E+04 1.53279E+05-1.49594E+04 3.18754E+05
 -1       180-3.32796E+05 5.69005E+04 1.09571E+05 2.39656E+04-5.67497E+02-1.22105E+05
 -1       181-2.51451E+06 1.71983E+04-5.00566E+04 7.52704E+04-3.20019E+04 2.72461E+05
 -1       182-2.44919E+06-1.77040E+04 1.67758E+05 9.90205E+04-2.87215E+04 2.46664E+05
 -1       183-2.63385E+06-3.60009E+02 2.49927E+05 1.50025E+05 5.77082E+04 6.29757E+05
 -1       184-4.64321E+06 3.02091E+04 1.43706E+05 1.52973E+05 2.05172E+04 5.27234E+05
 -1       185-3.31069E+05 8.66541E+03 7.95134E+04 8.53721E+02 2.14465E+04-6.94101E+04
 -1       186-4.33210E+05-1.08387E+05 1.46665E+05 7.81333E+04-8.94122E+04 6.39449E+04
 -1       187-1.57556E+06-2.07765E+04 1.59372E+05 1.38126E+05 6.63791E+04 3.17709E+05
 -1       188-1.20229E+07-2.12313E+04-1.41741E+05-1.87176E+05-1.01853E+05 1.03852E+06
 -1       189-9.66341E+06 1.43014E+04-8.38721E+04 2.99365E+05-8.08340E+04 1.08711E+06
 -1       190-6.26193E+06 2.84449E+03-3.05001E+05 1.20007E+05 1.36315E+05 3.33078E+05
 -1       191-7.05841E+06-5.05504E+04 1.19596E+05 4.62306E+05-1.10338E+05-6.99070E+02
 -1       192-1.16323E+07-3.30264E+04-9.14936E+04-2.79298E+04-3.19732E+04 1.03181E+06
 -1       193-1.19686E+07-4.50619E+04-3.75070E+05 4.72719E+05 1.06768E+05 1.13057E+06
 -1       194-4.49304E+05-2.40142E+04 4.90123E+04 7.58403E+04 2.43444E+04-2.31381E+04
 -1       195-1.62278E+06-4.31677E+03-1.42211E+05 2.52558E+05 3.37954E+04 3.57661E+06
 -1       196 1.02885E+06-1.22963E+04-1.13204E+05 1.57389E+05 4.80633E+02 2.79317E+06
 -1       197 5.07260E+06 3.55689E+04 5.29348E+05 8.03948E+04 1.41264E+05 3.03127E+06
 -1       198 2.55638E+06 1.73310E+04 7.90086E+04 1.72854E+05 7.41672E+04 3.26403E+06
 -1       199 2.52222E+06-3.69232E+03-1.80977E+05 8.50762E+04-7.01645E+04 2.99912E+06
 -1       200 5.82849E+05-2.68461E+04 7.54949E+04 1.62922E+05-4.47821E+04 3.31081E+06
 -1       201 2.95251E+06-6.46790E+02 1.61994E+05 1.86118E+05 2.95780E+03 3.00958E+06
 -1       202 2.32451E+06 2.63787E+04-1.61775E+05 8.12858E+04 4.49920E+03 1.11558E+06
 -1       203 1.03038E+06 3.65887E+04-2.01853E+05 3.34168E+04 6.43091E+03 7.87399E+05
 -1       204 9.93119E+05 2.89371E+04-1.96036E+05 1.10831E+05-1.92669E+04 1.84120E+06
 -1       205 1.34950E+06-2.42276E+03-1.17018E+05 1.24262E+05-1.71525E+04 1.21601E+06
 -1       206 3.00722E+06 3.92489E+03-1.87158E+05 2.82164E+05 4.58062E+04 1.78230E+06
 -1       207 4.24797E+05 3.45196E+04-4.03001E+05 1.04941E+04-1.53961E+04 1.05462E+06
 -1       208 5.16374E+05 5.44215E+04-6.49684E+05 2.69934E+04 2.01436E+04 7.26962E+05
 -1       209-1.60793E+06 3.91186E+04 4.01374E+05 1.66723E+05 1.96234E+04 6.30572E+05
 -1       210-5.56836E+05 3.52091E+04 3.92534E+05 1.14918E+05 3.78065E+04 2.47447E+05
 -1       211-4.99334E+05-2.01135E+04 2.88938E+05-1.89421E+04-4.59468E+04 5.14799E+05
 -1       212-4.85768E+05-6.13063E+04 4.51528E+05-4.73343E+04-2.57488E+04 2.34319E+05
 -1       213-4.99826E+06 9.40680E+03 8.31119E+03 1.76988E+05-2.31380E+04 1.85843E+06
 -1       214-6.42083E+06-1.04136E+04-2.14764E+05 2.48939E+05 8.56335E+04 1.72190E+06
 -1       215 7.61244E+06 4.36767E+04 4.10125E+05 2.64298E+05 9.55082E+04 1.86541E+06
 -1       216 5.99259E+06 2.01509E+04 3.90774E+05 4.33850E+05-4.13857E+04 1.93073E+06
 -1       217-3.04803E+05 1.12306E+04 3.51447E+05 7.11951E+04 4.60487E+04 1.10790E+06
 -1       218-5.16805E+05 1.70556E+04 5.67117E+05 1.76078E+04 1.48432E+04 8.31439E+05
 -1       219 2.72139E+04 1.41226E+04-1.01853E+05 1.13052E+05 2.34946E+04 2.02775E+06
 -1       220 5.03247E+05 5.89519E+03 5.83899E+03 1.91938E+05-1.57790E+04 3.00489E+06
 -1       221 4.83760E+05-3.54423E+03-1.79240E+05 2.49931E+04-4.21336E+04 1.69299E+06
 -1       222-1.44119E+06-6.52821E+03 3.18325E+05 2.12620E+05-5.36354E+04 1.00242E+06
 -1       223-7.95672E+05-6.81044E+03 8.49260E+04 9.83553E+04 1.97907E+04 1.77354E+06
 -1       224-1.60615E+06 2.80017E+03 1.07740E+05 2.74323E+05 6.20168E+04 2.26177E+06
 -1       225-2.54151E+06 1.76303E+04 1.37758E+05 1.19855E+05-2.00792E+04 2.32996E+06
 -1       226-2.47629E+06 1.74978E+04-2.85000E+05 1.60318E+05-3.26670E+04 2.92319E+06
 -1       227-5.70520E+05 7.28841E+03 6.31328E+04 2.29953E+05-7.87798E+03 3.38467E+06
 -1       228-3.39383E+06 1.60018E+03-3.86656E+04 3.00085E+05 4.69881E+04 2.23502E+06
 -1       229 3.21099E+06 1.10147E+04 2.96065E+05 2.57963E+05-5.62473E+04 2.32366E+06
 -1       230 7.20204E+05 1.44548E+04 1.10585E+05 3.27011E+04-9.92450E+03 3.37571E+06
 -1       231-1.80784E+06-2.94254E+03 8.80691E+04 5.59591E+04-4.86803E+03 2.57393E+06
 -1       232-5.47677E+05 8.84515E+03 8.25498E+04 8.37027E+04-2.72420E+03 2.30700E+06
 -1       233-1.02301E+06-1.43698E+04 1.03029E+05 1.87959E+05-2.61238E+04 3.72469E+06
 -1       234 2.55835E+05 1.69030E+04-4.49712E+04 1.92680E+05 1.27150E+04 3.35145E+06
 -1       235 2.23473E+06 1.64947E+04-4.39748E+04 1.23265E+05-2.37879E+04 2.32427E+06
 -1       236 2.18006E+06-1.19890E+04-6.88547E+03 3.48530E+05 5.96383E+04 2.66139E+06
 -1       237-8.79086E+05 1.88243E+02-1.93568E+05 1.30990E+05-5.98855E+04 3.42019E+06
 -1       238-1.14090E+05 4.29843E+03 1.28350E+05 8.90590E+04 1.14746E+05 3.61284E+06
 -1       239 6.38224E+05-3.23183E+04-3.88558E+05 4.22161E+04 1.28061E+04 1.55499E+05
 -1       240 6.42726E+05 3.59678E+03-2.41885E+05 1.31943E+05-6.79888E+04 8.59808E+05
 -1       241 7.03890E+05-2.89945E+04-5.04695E+05 9.69361E+04-3.28303E+03 1.22131E+06
 -1       242 1.43259E+06-8.47458E+03-4.07394E+04 1.79981E+05 6.80645E+03 1.27979E+06
 -1       243 6.06942E+05-9.22950E+03-5.87679E+05-4.50232E+04-7.97078E+03 7.55085E+05
 -1       244 3.92588E+05-2.57451E+04-1.07283E+05 6.97472E+04 1.05093E+03 1.57825E+06
 -1       245 1.24707E+06-7.37176E+03-1.30738E+05 5.09472E+04 5.43441E+04 1.96135E+06
 -1       246 1.21562E+06 2.29013E+03-1.01946E+05 4.41259E+04 5.06217E+04 7.53797E+05
 -1       247 2.91486E+06-3.78555E+04-2.24928E+05 1.05781E+05-2.13788E+04 1.77009E+06
 -1       248-7.23944E+06-3.00532E+04-1.93908E+05 1.05978E+04-4.54202E+04 1.80868E+06
 -1       249-3.04082E+06-3.78432E+03-1.68854E+05 6.55617E+04 6.25425E+04 3.20701E+06
 -1       250-5.46851E+06-3.28834E+04-1.63339E+03 3.93728E+05 1.22923E+05 2.10647E+06
 -1       251-3.72926E+06-4.39289E+01 4.37562E+04 1.34739E+05-5.09591E+02 2.11322E+06
 -1       252-4.93470E+06-2.22602E+04-4.07189E+05-1.87002E+04-4.42097E+03 3.02724E+06
 -1       253-1.30704E+06-1.74641E+04-1.79553E+05 1.71016E+05 2.89651E+04 3.42677E+06
 -1       254-3.15889E+06-3.72316E+04-3.55179E+05 3.10563E+05-8.67390E+03 3.20447E+06
 -1       255-7.58884E+06-7.84374E+04-2.77795E+05 1.44184E+05-3.95390E+04 1.72249E+06
 -1       256-6.58360E+06 2.44657E+04-2.40797E+05 2.89678E+05-7.77500E+04 2.54878E+06
 -1       257 5.75507E+05-4.89020E+03 5.81516E+04 1.97682E+05 2.40438E+04 3.43487E+06
 -1       258-1.72607E+05-2.28640E+04-1.59077E+04 1.24061E+05 4.66059E+03 2.30131E+06
 -1       259-3.13315E+06 1.30207E+04-2.69538E+05 1.99816E+05-2.67240E+04 2.91042E+06
 -1       260 4.01799E+06 1.19460E+04 3.16197E+05 2.12706E+05 2.72593E+04 2.93308E+06
 -1       261 7.28519E+06-6.93035E+02 2.28464E+05 1.30071E+05-4.15004E+04 2.00505E+06
 -1       262 5.02706E+05 7.00101E+04-4.83565E+05-6.26265E+03 3.36203E+04 2.50848E+05
 -1       263-1.28125E+06-4.00583E+04 2.35045E+05 1.79784E+04 7.81262E+03 8.18957E+05
 -1       264-7.10779E+06-2.00631E+04-3.63116E+05 1.12263E+05 6.73519E+04 1.85488E+06
 -1       265 7.23758E+06 4.16068E+04 2.02550E+05-7.30805E+04 1.03690E+05 1.68435E+06
 -1       266-4.27745E+06 1.97576E+04-3.00916E+05 8.44887E+04 4.48639E+04 3.08951E+06
 -1       267-1.20617E+06 1.07677E+04 1.27409E+05 7.26841E+03-2.99481E+04 6.98734E+05
 -1       268 6.17830E+06-2.71836E+04 2.79658E+05 1.28646E+05-5.95655E+04 2.03288E+06
 -1       269-5.32306E+05-3.52768E+04 6.09952E+05 4.56528E+04 1.96387E+04 7.44076E+05
 -1       270 5.31682E+05 1.77648E+04-2.97351E+05 8.34130E+04-1.31082E+04 6.15751E+05
 -1       271 4.46636E+06-5.22940E+04 2.31277E+05 9.17384E+03-7.16825E+04 2.50640E+06
 -1       272 2.91989E+06-1.93443E+02 7.50725E+04 1.24232E+05 2.43984E+04 2.75580E+06
 -1       273 5.43993E+06 3.69805E+03-1.13174E+05 7.25908E+04-6.35980E+04 1.63904E+06
 -1       274-1.41693E+06-1.91580E+04 1.38983E+05 4.06727E+04-2.80250E+04 1.91463E+06
 -1       275-4.05872E+05-1.19400E+04 3.29703E+05 8.10629E+04 3.84393E+04 9.86034E+05
 -1       276-1.69773E+06 2.34758E+04-3.75829E+05 1.30248E+05 8.98175E+03 3.12652E+06
 -1       277-2.53543E+06 4.06601E+03 2.77320E+05 1.12286E+05-2.04373E+04 1.08179E+06
 -1       278 3.42203E+06-1.40637E+04 4.13380E+04 7.09572E+04-1.98364E+04 2.48530E+06
 -1       279-5.86794E+06-3.18473E+03-1.92552E+05 8.06179E+04-3.61444E+04 1.99574E+06
 -1       280 1.41766E+06-1.59095E+04 3.36607E+05 2.93032E+05 1.67808E+04 3.23063E+06
 -3
    1PSTEP                         3           1           1          
    1PGM                1.000000E+00                                  
    1PGK                1.223986E+11                                  
    1PHID                         -1                                  
    1PSUBC                         0                                  
    1PMODE                         1                                  
  100CL  101 5.56812E+04         280                     2    1MODAL      1
 -4  TOSTRAIN    6    1
 -5  EXX         1    4    1    1
 -5  EYY         1    4    2    2
 -5  EZZ         1    4    3    3
 -5  EXY         1    4    1    2
 -5  EYZ         1    4    2    3
 -5  EZX         1    4    3    1
 -1         1 7.53456E+01-1.12962E-01-1.03726E+00 2.07209E+00-9.82576E-01 9.88340E+00
 -1         2-6.62482E+01-1.24310E-02 1.02170E+00-8.10966E-01-9.09806E-01 9.49833E+00
 -1         3 6.62896E+01-1.49129E-01-9.21098E-01-9.35221E-01 8.56132E-01 9.36035E+00
 -1         4-7.55528E+01 2.55634E-01 9.01560E-01 2.13923E+00 1.10583E+00 9.33702E+00
 -1         5-1.53775E+00-2.91591E-01-2.21814E+00-1.22222E-01 1.46218E-01-1.74006E+00
 -1         6 1.37613E+00 1.77482E-01 2.24057E+00-2.40416E-02 2.24899E-01-1.68251E+00
 -1         7-1.50451E+00-8.81223E-03-2.14140E+00 5.18002E-03-2.51052E-02-1.78340E+00
 -1         8 1.72931E+00 4.50113E-01 2.17959E+00-3.15567E-01-1.13618E-01-1.73492E+00
 -1         9 5.13163E+00-6.14675E-03-1.19468E-01 1.00262E+00-4.69072E-03 1.71098E+01
 -1        10 3.29678E+01-1.09769E-06-9.48929E-06 8.00424E-01-1.61110E-06 1.51977E+01
 -1        11-2.29915E+01-7.56590E-07 8.97928E-06 8.84838E-01-8.59789E-07 1.49325E+01
 -1        12 7.33896E+01-3.90057E-02 4.91035E-01 6.10823E-01 1.44765E-02 1.29096E+01
 -1        13 8.24597E+01-2.05154E-06-7.65213E-06 7.07799E-01-2.33630E-06 1.27348E+01
 -1        14 7.62130E+01-1.43568E-06-5.68065E-06 1.22766E+00 3.15995E-06 1.25943E+01
 -1        15-5.05066E+00-1.79423E-02-2.92740E-02 9.64058E-01 1.46573E-01 1.68359E+01
 -1        16 2.35699E+01 5.76827E-08-8.87447E-06 9.77769E-01-8.06182E-07 1.48296E+01
 -1        17-3.34406E+01 4.15261E-07 8.98877E-06 7.42260E-01 1.30000E-07 1.47104E+01
 -1        18-6.75626E+01 2.66050E-01-7.88447E-01 1.12799E+00-3.35180E-01 1.06229E+01
 -1        19-7.90079E+01 1.85803E-06 7.31615E-06 1.02829E+00-1.75901E-06 1.25910E+01
 -1        20-8.11211E+01 2.88673E-06 4.08113E-06 8.64126E-01 1.34081E-06 1.21139E+01
 -1        21-6.76573E-01-1.39493E-01-9.04265E-03 9.71880E-02-2.29629E-01 2.68180E+00
 -1        22-9.53068E-01-2.14729E-02-3.24445E+00-1.22726E-03 6.39410E-02 4.42710E-01
 -1        23 9.43644E-01-2.19628E-01 3.31794E+00 5.79341E-03-5.69733E-02 6.13779E-01
 -1        24-1.02908E+00 1.62052E-01-2.22018E+00 2.51256E-01-7.34600E-02-2.09310E+00
 -1        25-1.49660E+00-4.22243E-01-1.78412E+00 1.74202E-01 2.82456E-02-1.36556E+00
 -1        26-1.39390E+00 2.70236E-01-1.68210E+00 3.67251E-03-1.41560E-02-1.22649E+00
 -1        27 4.16597E-02 6.47531E-02-1.84607E-01-5.85288E-02 8.68641E-02 2.26042E+00
 -1        28-7.50855E-01 2.20568E-01-3.66200E+00-1.20209E-01 1.97107E-02 4.25615E-01
 -1        29 7.12469E-01-9.06159E-02 3.49064E+00-2.52959E-02 2.60538E-02 4.62728E-01
 -1        30 8.87978E-01-6.83955E-01 1.62419E+00 3.30415E-01-1.21817E-01-1.08248E+00
 -1        31 1.11787E+00-3.57592E-01 1.46031E+00 6.93999E-02-1.03771E-01-9.34371E-01
 -1        32 1.23788E+00 2.10912E-01 1.50404E+00 4.90433E-02 4.78217E-02-9.56098E-01
 -1        33 2.35870E+01-1.47271E-01-6.91430E-01 2.09885E-01-1.18075E-01 3.11035E+00
 -1        34 5.09823E+01 2.90692E-01-5.22581E-01 7.28732E-01-6.76935E-01 3.86456E+00
 -1        35 8.32863E+00 5.78363E-02-7.43557E-01-3.39129E-03-9.73612E-03 6.94823E-01
 -1        36-1.98008E+01 3.59960E-02 5.05925E-02 2.24854E-01 1.54232E-02 2.12535E+00
 -1        37-4.52433E+01-4.14895E-01 7.05049E-01-1.25770E-01-5.80738E-01 3.68732E+00
 -1        38-6.69708E+00-1.62785E-01 6.63906E-01 9.60390E-02-1.38477E-01 4.41114E-01
 -1        39 2.07756E+01 6.47648E-02-1.94972E-02 8.06463E-02-2.67303E-01 2.21113E+00
 -1        40 4.55356E+01 3.44286E-01-8.16394E-01 1.60985E-01 5.61166E-02 3.15695E+00
 -1        41 6.51129E+00 2.30607E-01-6.74856E-01-7.37796E-02 5.39501E-03 4.93562E-01
 -1        42-2.40635E+01-8.01749E-02 2.01544E-01 3.55093E-01-3.77328E-01 2.81397E+00
 -1        43-5.12485E+01-1.81512E-01 6.97127E-01 3.22187E-01 3.89136E-01 3.14836E+00
 -1        44-7.88128E+00-1.20715E-01 9.00240E-01 2.74083E-01-6.67358E-02 7.79466E-01
 -1        45-5.06697E-01-2.02719E-03-1.58648E-02 7.75635E-01-3.78720E-01 1.73040E+01
 -1        46-2.56773E+01 9.68188E-02-9.54812E-01 4.89226E-01 3.19760E-01 1.60517E+01
 -1        47 2.72922E+01 1.63430E-02 2.33611E+00 1.77032E+00 5.18709E-01 1.63787E+01
 -1        48-2.60247E+01-1.32160E-01-1.29353E+00 8.41958E-01-2.30442E-01 1.52241E+01
 -1        49 2.37114E+01 1.18278E-01 3.07962E-01 1.02131E+00 2.13125E-01 1.43042E+01
 -1        50-4.33208E+01 3.18313E-02-3.94399E-01 2.38509E-01-1.81292E-01 1.27917E+01
 -1        51-9.24872E+00-7.71235E-07 8.38144E-06 8.92408E-01-5.53542E-07 1.58479E+01
 -1        52 2.66180E+00-8.21888E-07-5.78369E-01 9.67808E-01-3.12418E-02 1.70622E+01
 -1        53-1.25155E+01 1.69712E-02 3.10792E-01 1.14265E+00 1.63877E-01 1.63190E+01
 -1        54 1.47856E+01 1.23636E-02 6.69028E-01 7.78396E-01 3.40698E-01 1.67166E+01
 -1        55 4.92440E+01-1.78146E-02 4.30590E-01 1.49744E+00-2.06397E-01 1.31798E+01
 -1        56 1.40036E+01 3.72918E-02 5.67551E-01 1.54731E+00-3.02425E-01 1.72509E+01
 -1        57 5.10923E+01-4.94097E-02 1.14746E+00 8.63599E-01 5.49035E-01 1.45484E+01
 -1        58 3.35461E+01-5.33556E-02-1.11598E-05 8.59366E-01-5.48531E-01 1.51265E+01
 -1        59 4.89589E+01 5.83916E-07-5.23626E-06 7.99469E-01 1.92796E-06 1.33931E+01
 -1        60 4.41014E+01-2.96256E-02 3.49747E-01 8.36340E-02 1.60068E-01 1.24241E+01
 -1        61 8.84235E+00 3.38058E-02 3.51263E-01 1.49669E+00 1.92538E-01 1.52981E+01
 -1        62-4.73392E+01 1.68758E-01-9.47128E-01 2.11827E+00 3.89192E-01 1.37961E+01
 -1        63-2.64815E+01-1.78992E-07 9.98786E-06 1.15091E+00 9.14023E-07 1.57885E+01
 -1        64-1.61247E+01-9.81744E-02-2.63692E-01 9.36074E-01-1.80939E-01 1.58543E+01
 -1        65-4.92143E+01 3.66441E-02-5.33984E-01 1.35459E+00 2.48676E-01 1.24057E+01
 -1        66-1.32951E+01 3.32820E-07 1.00413E-05 1.10015E+00 4.01170E-07 1.63185E+01
 -1        67-2.63936E+00 3.83082E-07 2.96124E-01 1.05477E+00 2.32033E-03 1.67070E+01
 -1        68-4.48613E+01 9.13143E-04-9.60859E-01 1.60982E-01-4.79977E-01 1.29849E+01
 -1        69 1.00440E+01 1.68715E-07-9.12891E-06 9.93283E-01-7.34479E-07 1.55030E+01
 -1        70 1.17744E+00 5.21256E-02 1.09181E-01 9.20435E-02-1.81224E-01 3.51714E+00
 -1        71-4.52923E-02-3.18485E-01 4.69433E+00-1.52818E-01 1.68628E-01 4.52045E-01
 -1        72 5.41575E-01 2.50454E-01 4.15312E+00 3.86748E-01-4.58258E-02 1.49272E+00
 -1        73 1.06462E-01 4.85891E-01-5.02797E+00-1.05873E-02 8.78312E-02 6.13816E-01
 -1        74 2.68963E-01-2.07838E-01-4.89519E+00-6.86312E-02-2.08377E-02 7.25609E-01
 -1        75 7.16945E-01-1.15409E-01 2.84807E+00 5.97888E-01 1.99611E-02 3.59487E-01
 -1        76 2.81946E-01 4.78912E-01 3.57278E+00 3.23855E-02-4.94915E-02-1.72705E-01
 -1        77 5.27663E-01 1.10397E-01 3.16272E+00-1.52751E-02-2.47509E-01 1.36688E+00
 -1        78 1.69301E+00-2.92490E-01 2.34211E+00-1.72630E-02-1.93655E-01 1.38556E+00
 -1        79 1.84699E+00 1.40264E-01 2.55586E+00 1.24595E-01-3.89692E-01 2.43914E+00
 -1        80 2.77757E-01 1.21479E-01 1.03030E-01-7.30816E-02-3.34938E-01 2.44985E+00
 -1        81-1.96057E-01 5.00763E-01-4.10830E+00 4.84442E-02-4.62064E-02-6.15686E-02
 -1        82-2.68764E-01 1.89494E-01-3.99230E+00-6.54546E-02 1.68342E-01-4.69500E-01
 -1        83-4.19797E-01 3.91002E-01-3.44191E+00 4.38260E-02 1.14222E-01 1.30783E+00
 -1        84-5.14186E-01 1.86733E-01-2.84014E+00 8.42334E-02-4.72116E-01 1.72211E+00
 -1        85-2.71921E-02 2.63659E-02-2.91525E+00 3.84612E-01 4.18491E-02 1.28780E+00
 -1        86-1.77469E-02-2.00286E-01-3.79306E+00 8.09329E-02 1.40303E-01-6.89526E-01
 -1        87-9.15189E-02-3.35734E-01-4.07018E+00-5.12619E-02-1.45127E-01-2.64912E-01
 -1        88-8.30244E-01-1.19625E-01-3.04036E+00-2.59026E-02-3.10722E-01 1.76000E+00
 -1        89 3.46768E-03-3.92747E-02-3.06486E+00 2.09940E-01 6.79550E-01 2.47540E+00
 -1        90-7.04337E-02-4.48845E-02 7.82533E-01 3.01719E-01 9.09788E-02 2.44114E+00
 -1        91 4.11329E-02-6.58856E-01 3.28540E+00-5.81260E-02-1.04845E-01-1.47427E-02
 -1        92 2.58207E-01-3.39482E-03 3.92847E+00-1.77292E-01 7.24257E-02-4.84490E-01
 -1        93 4.18844E-01 6.89654E-03 2.89789E+00 7.68585E-02 5.28844E-01 1.24720E+00
 -1        94 7.98517E-01-3.25945E-01 3.07627E+00 1.12549E-01-1.39671E-01 1.44554E+00
 -1        95 7.88941E-01-3.19434E-02 4.01387E-01 4.96167E-01-2.17447E-01 1.78674E+01
 -1        96-5.22927E+00-1.27433E-01 1.41387E+00 2.07207E-01 5.32516E-02 7.13623E+00
 -1        97 5.87070E+00 6.18779E-02-1.20226E+00-1.95122E-01 1.50825E-01 6.82459E+00
 -1        98 2.40725E+01 2.01961E-01 1.04633E+00-5.41814E-01 2.68951E-01 1.43395E+01
 -1        99-1.78290E+01 8.71436E-02-1.66409E+00 4.33737E-01 1.43021E-01 1.45103E+01
 -1       100 4.73822E+01 7.39585E-02 4.45801E-01 5.52785E-01-2.81480E-01 1.16379E+01
 -1       101 1.34063E+01 1.37402E-01 1.43701E+00 3.94569E-01 1.14687E-01 1.54632E+01
 -1       102 3.00605E+00 5.37746E-02 4.01905E-02 1.08102E+00 4.26111E-02 1.72849E+01
 -1       103 1.13578E+01 5.34442E-02-2.07653E-01 6.60061E-01-2.26116E-01 1.57817E+01
 -1       104-6.64323E+00 6.63378E-02-8.86063E-02 1.90050E-01-2.40446E-02 1.61060E+01
 -1       105-5.48150E+00 1.41742E-01-1.58161E+00 5.94588E-01 5.81765E-02 1.55943E+01
 -1       106-3.95190E+01 8.40752E-02-4.50517E-01 1.43321E-01-3.45805E-01 1.14399E+01
 -1       107-3.71957E+00-1.11269E-01 3.07564E-01-4.84917E-02-1.98180E-01 1.25592E+01
 -1       108-1.13646E+01-9.51907E-02 1.11589E+00-1.49783E-02-3.82595E-01 4.95918E+00
 -1       109-1.15813E+01 8.25609E-02 5.68697E-01-2.68003E-01-3.18432E-01 1.13634E+01
 -1       110 5.56457E-01-7.31315E-02 9.20897E-02 1.43006E-01 1.07380E-01 1.01073E+01
 -1       111-2.36362E+00-1.29341E-01 1.52285E+00 9.20083E-02-4.72258E-03 4.80868E+00
 -1       112-2.20069E+00 6.62418E-02 1.74151E+00 2.51166E-01 2.55152E-01 2.43505E+00
 -1       113 5.15056E+00-7.16860E-03 2.72312E-01 1.70383E-01 2.01754E-03 1.23035E+01
 -1       114 2.12299E+00 1.76832E-02-1.62535E+00 6.25003E-02-1.15521E-01 4.91287E+00
 -1       115 1.35373E+01-1.21080E-01-6.23911E-01 3.54067E-02-2.37897E-01 1.15371E+01
 -1       116 1.33071E+01-9.34628E-02-1.28848E+00 1.16321E-01-2.31857E-01 5.47240E+00
 -1       117 2.25460E+00-7.63363E-02-1.69139E+00-3.15207E-01 2.52805E-01 2.31625E+00
 -1       118 2.56380E+01 4.76132E-02 9.13164E-02-5.24283E-01 1.36482E-01 8.36740E+00
 -1       119-2.07741E+01-1.73383E-02-7.86701E-01 8.47031E-01 3.49892E-01 7.94578E+00
 -1       120-1.72410E+00-1.23569E-02 2.06149E-01 4.68631E-01-4.62029E-02 1.82170E+01
 -1       121 4.69469E+00 1.60905E-01-1.57863E+00-1.91811E-02 9.65372E-02 6.82391E+00
 -1       122 1.64655E+01-1.03003E-01 2.04190E+00 7.89824E-01 3.17973E-02 1.43853E+01
 -1       123-5.91734E+00 3.36330E-02 1.51394E+00-1.44139E-01 2.24969E-01 6.97558E+00
 -1       124-2.29989E+01 5.22164E-03-1.86251E+00-4.03673E-01 1.75046E-02 1.46177E+01
 -1       125-1.35452E+01 1.40701E-01 1.07298E+00-1.91999E-01 1.43478E-01 4.94340E+00
 -1       126-4.89424E+00-2.49345E-02 6.28511E-02 4.72857E-01 3.37817E-01 1.22737E+01
 -1       127-1.43000E+01-5.29357E-02 8.31978E-01-1.15962E-02-1.25588E-01 1.15093E+01
 -1       128-2.21860E+00 1.55952E-01 1.68019E+00-3.99104E-01-1.26908E-01 2.27552E+00
 -1       129-2.54808E+01-1.72561E-01-9.08652E-01-6.48386E-02-6.51305E-01 8.65957E+00
 -1       130-1.05452E+01-3.10682E-02 1.65617E-01 2.95564E-01 8.79784E-02 1.58995E+01
 -1       131-4.74271E+01 1.25702E-01-6.58608E-01 8.19655E-01 5.65522E-01 1.15979E+01
 -1       132 1.15134E+01 4.75343E-02-1.05017E+00 9.88338E-02 3.16542E-01 4.61777E+00
 -1       133 9.72310E+00-3.66856E-02-6.23392E-01-5.18302E-01 3.38788E-02 1.14217E+01
 -1       134 3.16564E+00 1.41069E-01-2.02706E-01 1.25432E-01 1.69178E-01 1.25949E+01
 -1       135 2.04862E+00-1.87540E-02-1.71203E+00 2.03917E-01-1.72184E-01 2.15376E+00
 -1       136 2.16479E+00 8.78594E-02-1.80974E+00-1.04804E-01 4.89828E-02 4.53920E+00
 -1       137-7.58677E-01 1.82476E-02 1.50710E-02 2.72021E-01 3.30424E-01 1.02273E+01
 -1       138 5.46805E+00-2.92115E-02 1.67793E+00 8.57745E-01 2.86061E-01 1.55255E+01
 -1       139-3.00980E+00-2.20728E-02 4.44357E-02 4.86772E-01 1.29918E-01 1.74280E+01
 -1       140 5.84873E+00-6.59602E-02 1.91517E-01 4.42237E-01-1.39039E-01 1.62494E+01
 -1       141 3.94378E+01-1.43211E-01 5.85435E-01-3.02276E-01 5.24748E-01 1.14293E+01
 -1       142 2.07783E+01-5.43918E-02 1.33110E+00 3.71228E-01-8.17712E-01 7.91024E+00
 -1       143-2.42924E+00-7.12630E-02 1.47389E+00 1.86010E-01 2.23801E-01 4.52442E+00
 -1       144-1.38087E+01-6.28116E-02-1.80225E+00 4.42633E-01 7.07328E-02 1.56444E+01
 -1       145 2.54698E+01 1.19646E-01 4.50656E-02 1.67308E+00-3.69321E-02 3.61096E+00
 -1       146 4.47475E+01-1.36697E-01 1.30853E+00 5.45544E-01-3.25502E-01 6.01889E+00
 -1       147 5.61216E+00 1.73197E-01-3.06104E-01 3.89612E-01 9.48637E-02 1.16904E+00
 -1       148 6.28046E+00-6.07128E-02 3.36057E-01 5.90431E-01 1.10307E-01 5.23600E-01
 -1       149 4.71293E+01 3.38247E-01 1.28146E+00 2.91850E-01 4.72076E-01 1.00878E+00
 -1       150 6.06647E+01 3.31644E-01 1.60929E+00-5.49302E-01 5.11057E-01 5.42391E+00
 -1       151 6.36477E+01 1.58565E-01 4.74015E-01 1.57079E+00-1.24244E-01 5.22673E+00
 -1       152 4.84157E+01 2.80200E-01 1.96875E+00 9.66375E-01-1.19574E-01 7.55195E+00
 -1       153 6.04541E+01-7.49183E-02 9.29243E-01 1.32698E+00-4.15864E-01 9.93017E+00
 -1       154 3.56869E+01 7.74623E-02 1.23507E+00 1.41457E+00 3.95660E-01 5.77738E+00
 -1       155 3.65888E+01 2.04303E-01-2.94571E-01 2.21513E-02-6.87865E-01-2.90624E-01
 -1       156 5.75853E+01 8.59741E-02 2.39775E-01 3.64382E-01 8.32193E-02 5.93948E+00
 -1       157 3.38500E+01 7.67980E-02 1.68431E+00 6.92122E-01 7.03403E-01 1.75055E+00
 -1       158 3.34683E+01-8.02085E-02 6.61578E-01 8.49836E-01-4.93785E-01 3.28427E+00
 -1       159 2.08325E+01 4.78369E-02-2.35022E-01 9.35784E-01 1.01186E-01 3.19818E+00
 -1       160 1.15719E+01 1.14558E-01-3.67623E-01 3.66015E-01 8.72048E-02 1.30819E+00
 -1       161 1.25668E+01 6.90894E-02-5.32307E-01 9.50543E-01-5.68656E-02 2.43400E+00
 -1       162 1.44953E+00 9.76887E-03-2.84974E-01 8.94517E-02-1.77495E-02-3.70529E-01
 -1       163 2.20774E+00 3.07084E-01-1.22300E+00 3.94736E-01 1.37765E-01-2.28183E-01
 -1       164 7.59811E+00 1.70560E-01-5.03189E-01 4.98261E-01 1.10283E-01 8.37696E-01
 -1       165 2.14418E+00-1.20941E-01-4.20984E-01 2.77335E-01-5.12038E-02-8.99229E-01
 -1       166 1.31079E+01 7.91810E-02-1.36955E-01 6.24566E-01 6.67236E-02 2.06483E+00
 -1       167 1.42691E+01-1.45450E-01-6.71443E-01 6.80184E-01-1.62616E-01 1.91680E+00
 -1       168 2.47193E+01-1.86631E-01-7.08581E-01 1.15306E+00-1.60213E-01 2.27309E+00
 -1       169 1.71557E+00-2.14132E-01-2.07838E-01 4.32799E-01 1.41553E-01-4.06142E-01
 -1       170-2.31124E+01 1.60107E-02 7.67497E-01 1.43161E+00 1.47608E-02 4.02402E+00
 -1       171-5.98718E+00 4.42482E-02-2.00192E-01 4.13559E-01-7.29831E-02 2.76349E-01
 -1       172-7.18834E+00-2.08100E-01 7.66290E-01 7.62005E-02-9.21078E-02 1.14576E+00
 -1       173-4.88922E+01-3.65741E-01-3.56262E-01 8.59036E-01 2.68964E-02 2.73888E+00
 -1       174-4.47723E+01-2.68789E-01-1.23109E+00 1.45613E+00 3.47840E-01 1.26578E+00
 -1       175-3.51207E+01-1.75147E-01-6.24072E-01 1.02622E+00-5.59599E-01 2.64098E+00
 -1       176-6.42679E+01-2.14932E-01-3.64826E-02 1.65487E+00 3.75958E-01 5.29687E+00
 -1       177-3.53994E+01-3.19212E-03 1.84158E-01 2.72645E-01 6.70877E-01 4.04290E+00
 -1       178-2.22142E+01 2.72996E-02 5.28188E-01 9.99074E-01-7.42970E-02 2.61745E+00
 -1       179-1.34547E+01-5.54450E-02 4.15712E-01 7.66393E-01-7.47970E-02 1.59377E+00
 -1       180-1.66398E+00 2.84502E-01 5.47856E-01 1.19828E-01-2.83749E-03-6.10525E-01
 -1       181-1.25726E+01 8.59914E-02-2.50283E-01 3.76352E-01-1.60010E-01 1.36231E+00
 -1       182-1.22460E+01-8.85199E-02 8.38789E-01 4.95103E-01-1.43608E-01 1.23332E+00
 -1       183-1.31693E+01-1.80004E-03 1.24964E+00 7.50123E-01 2.88541E-01 3.14879E+00
 -1       184-2.32160E+01 1.51045E-01 7.18532E-01 7.64865E-01 1.02586E-01 2.63617E+00
 -1       185-1.65534E+00 4.33270E-02 3.97567E-01 4.26861E-03 1.07232E-01-3.47050E-01
 -1       186-2.16605E+00-5.41936E-01 7.33325E-01 3.90667E-01-4.47061E-01 3.19724E-01
 -1       187-7.87778E+00-1.03883E-01 7.96861E-01 6.90630E-01 3.31896E-01 1.58854E+00
 -1       188-6.01147E+01-1.06156E-01-7.08704E-01-9.35881E-01-5.09265E-01 5.19261E+00
 -1       189-4.83171E+01 7.15070E-02-4.19361E-01 1.49682E+00-4.04170E-01 5.43555E+00
 -1       190-3.13097E+01 1.42225E-02-1.52501E+00 6.00036E-01 6.81575E-01 1.66539E+00
 -1       191-3.52921E+01-2.52752E-01 5.97979E-01 2.31153E+00-5.51687E-01-3.49535E-03
 -1       192-5.81614E+01-1.65132E-01-4.57468E-01-1.39649E-01-1.59866E-01 5.15907E+00
 -1       193-5.98428E+01-2.25310E-01-1.87535E+00 2.36359E+00 5.33840E-01 5.65286E+00
 -1       194-2.24652E+00-1.20071E-01 2.45061E-01 3.79202E-01 1.21722E-01-1.15691E-01
 -1       195-8.11389E+00-2.15838E-02-7.11057E-01 1.26279E+00 1.68977E-01 1.78831E+01
 -1       196 5.14427E+00-6.14813E-02-5.66022E-01 7.86944E-01 2.40317E-03 1.39659E+01
 -1       197 2.53630E+01 1.77844E-01 2.64674E+00 4.01974E-01 7.06322E-01 1.51564E+01
 -1       198 1.27819E+01 8.66548E-02 3.95043E-01 8.64269E-01 3.70836E-01 1.63201E+01
 -1       199 1.26111E+01-1.84616E-02-9.04885E-01 4.25381E-01-3.50823E-01 1.49956E+01
 -1       200 2.91424E+00-1.34230E-01 3.77475E-01 8.14609E-01-2.23910E-01 1.65541E+01
 -1       201 1.47625E+01-3.23395E-03 8.09968E-01 9.30592E-01 1.47890E-02 1.50479E+01
 -1       202 1.16226E+01 1.31894E-01-8.08875E-01 4.06429E-01 2.24960E-02 5.57788E+00
 -1       203 5.15192E+00 1.82944E-01-1.00927E+00 1.67084E-01 3.21546E-02 3.93699E+00
 -1       204 4.96560E+00 1.44685E-01-9.80181E-01 5.54154E-01-9.63344E-02 9.20602E+00
 -1       205 6.74751E+00-1.21138E-02-5.85090E-01 6.21311E-01-8.57626E-02 6.08003E+00
 -1       206 1.50361E+01 1.96244E-02-9.35791E-01 1.41082E+00 2.29031E-01 8.91150E+00
 -1       207 2.12398E+00 1.72598E-01-2.01500E+00 5.24703E-02-7.69803E-02 5.27309E+00
 -1       208 2.58187E+00 2.72107E-01-3.24842E+00 1.34967E-01 1.00718E-01 3.63481E+00
 -1       209-8.03963E+00 1.95593E-01 2.00687E+00 8.33617E-01 9.81170E-02 3.15286E+00
 -1       210-2.78418E+00 1.76046E-01 1.96267E+00 5.74591E-01 1.89033E-01 1.23723E+00
 -1       211-2.49667E+00-1.00568E-01 1.44469E+00-9.47106E-02-2.29734E-01 2.57400E+00
 -1       212-2.42884E+00-3.06532E-01 2.25764E+00-2.36671E-01-1.28744E-01 1.17160E+00
 -1       213-2.49913E+01 4.70340E-02 4.15559E-02 8.84939E-01-1.15690E-01 9.29214E+00
 -1       214-3.21042E+01-5.20678E-02-1.07382E+00 1.24470E+00 4.28167E-01 8.60949E+00
 -1       215 3.80622E+01 2.18384E-01 2.05063E+00 1.32149E+00 4.77541E-01 9.32704E+00
 -1       216 2.99629E+01 1.00754E-01 1.95387E+00 2.16925E+00-2.06929E-01 9.65367E+00
 -1       217-1.52402E+00 5.61532E-02 1.75723E+00 3.55976E-01 2.30244E-01 5.53951E+00
 -1       218-2.58402E+00 8.52782E-02 2.83559E+00 8.80390E-02 7.42160E-02 4.15720E+00
 -1       219 1.36070E-01 7.06132E-02-5.09265E-01 5.65258E-01 1.17473E-01 1.01387E+01
 -1       220 2.51623E+00 2.94760E-02 2.91949E-02 9.59690E-01-7.88952E-02 1.50244E+01
 -1       221 2.41880E+00-1.77211E-02-8.96198E-01 1.24966E-01-2.10668E-01 8.46497E+00
 -1       222-7.20593E+00-3.26411E-02 1.59163E+00 1.06310E+00-2.68177E-01 5.01208E+00
 -1       223-3.97836E+00-3.40522E-02 4.24630E-01 4.91776E-01 9.89535E-02 8.86768E+00
 -1       224-8.03075E+00 1.40008E-02 5.38701E-01 1.37162E+00 3.10084E-01 1.13088E+01
 -1       225-1.27075E+01 8.81516E-02 6.88792E-01 5.99273E-01-1.00396E-01 1.16498E+01
 -1       226-1.23814E+01 8.74889E-02-1.42500E+00 8.01590E-01-1.63335E-01 1.46159E+01
 -1       227-2.85260E+00 3.64420E-02 3.15664E-01 1.14976E+00-3.93899E-02 1.69233E+01
 -1       228-1.69691E+01 8.00088E-03-1.93328E-01 1.50042E+00 2.34940E-01 1.11751E+01
 -1       229 1.60550E+01 5.50734E-02 1.48032E+00 1.28981E+00-2.81237E-01 1.16183E+01
 -1       230 3.60102E+00 7.22742E-02 5.52926E-01 1.63505E-01-4.96225E-02 1.68785E+01
 -1       231-9.03920E+00-1.47127E-02 4.40345E-01 2.79795E-01-2.43402E-02 1.28696E+01
 -1       232-2.73839E+00 4.42258E-02 4.12749E-01 4.18514E-01-1.36210E-02 1.15350E+01
 -1       233-5.11504E+00-7.18492E-02 5.15144E-01 9.39793E-01-1.30619E-01 1.86235E+01
 -1       234 1.27917E+00 8.45151E-02-2.24856E-01 9.63398E-01 6.35748E-02 1.67573E+01
 -1       235 1.11736E+01 8.24734E-02-2.19874E-01 6.16327E-01-1.18940E-01 1.16213E+01
 -1       236 1.09003E+01-5.99449E-02-3.44273E-02 1.74265E+00 2.98191E-01 1.33070E+01
 -1       237-4.39543E+00 9.41215E-04-9.67841E-01 6.54952E-01-2.99427E-01 1.71010E+01
 -1       238-5.70450E-01 2.14921E-02 6.41751E-01 4.45295E-01 5.73732E-01 1.80642E+01
 -1       239 3.19112E+00-1.61592E-01-1.94279E+00 2.11080E-01 6.40306E-02 7.77495E-01
 -1       240 3.21363E+00 1.79839E-02-1.20943E+00 6.59715E-01-3.39944E-01 4.29904E+00
 -1       241 3.51945E+00-1.44973E-01-2.52347E+00 4.84680E-01-1.64151E-02 6.10654E+00
 -1       242 7.16293E+00-4.23729E-02-2.03697E-01 8.99903E-01 3.40322E-02 6.39894E+00
 -1       243 3.03471E+00-4.61475E-02-2.93839E+00-2.25116E-01-3.98539E-02 3.77542E+00
 -1       244 1.96294E+00-1.28725E-01-5.36415E-01 3.48736E-01 5.25467E-03 7.89126E+00
 -1       245 6.23537E+00-3.68588E-02-6.53691E-01 2.54736E-01 2.71721E-01 9.80676E+00
 -1       246 6.07809E+00 1.14507E-02-5.09730E-01 2.20629E-01 2.53109E-01 3.76899E+00
 -1       247 1.45743E+01-1.89277E-01-1.12464E+00 5.28903E-01-1.06894E-01 8.85044E+00
 -1       248-3.61972E+01-1.50266E-01-9.69540E-01 5.29889E-02-2.27101E-01 9.04341E+00
 -1       249-1.52041E+01-1.89216E-02-8.44268E-01 3.27808E-01 3.12713E-01 1.60351E+01
 -1       250-2.73425E+01-1.64417E-01-8.16695E-03 1.96864E+00 6.14614E-01 1.05323E+01
 -1       251-1.86463E+01-2.19644E-04 2.18781E-01 6.73696E-01-2.54795E-03 1.05661E+01
 -1       252-2.46735E+01-1.11301E-01-2.03594E+00-9.35008E-02-2.21048E-02 1.51362E+01
 -1       253-6.53519E+00-8.73206E-02-8.97765E-01 8.55081E-01 1.44825E-01 1.71339E+01
 -1       254-1.57945E+01-1.86158E-01-1.77590E+00 1.55282E+00-4.33695E-02 1.60223E+01
 -1       255-3.79442E+01-3.92187E-01-1.38898E+00 7.20922E-01-1.97695E-01 8.61245E+00
 -1       256-3.29180E+01 1.22328E-01-1.20398E+00 1.44839E+00-3.88750E-01 1.27439E+01
 -1       257 2.87753E+00-2.44510E-02 2.90758E-01 9.88409E-01 1.20219E-01 1.71744E+01
 -1       258-8.63034E-01-1.14320E-01-7.95385E-02 6.20303E-01 2.33030E-02 1.15066E+01
 -1       259-1.56658E+01 6.51037E-02-1.34769E+00 9.99078E-01-1.33620E-01 1.45521E+01
 -1       260 2.00900E+01 5.97301E-02 1.58098E+00 1.06353E+00 1.36297E-01 1.46654E+01
 -1       261 3.64260E+01-3.46517E-03 1.14232E+00 6.50354E-01-2.07502E-01 1.00252E+01
 -1       262 2.51353E+00 3.50050E-01-2.41782E+00-3.13133E-02 1.68102E-01 1.25424E+00
 -1       263-6.40623E+00-2.00291E-01 1.17522E+00 8.98919E-02 3.90631E-02 4.09478E+00
 -1       264-3.55390E+01-1.00316E-01-1.81558E+00 5.61316E-01 3.36759E-01 9.27440E+00
 -1       265 3.61879E+01 2.08034E-01 1.01275E+00-3.65402E-01 5.18452E-01 8.42174E+00
 -1       266-2.13873E+01 9.87881E-02-1.50458E+00 4.22443E-01 2.24320E-01 1.54475E+01
 -1       267-6.03083E+00 5.38384E-02 6.37043E-01 3.63421E-02-1.49741E-01 3.49367E+00
 -1       268 3.08915E+01-1.35918E-01 1.39829E+00 6.43231E-01-2.97828E-01 1.01644E+01
 -1       269-2.66153E+00-1.76384E-01 3.04976E+00 2.28264E-01 9.81933E-02 3.72038E+00
 -1       270 2.65841E+00 8.88239E-02-1.48675E+00 4.17065E-01-6.55408E-02 3.07875E+00
 -1       271 2.23318E+01-2.61470E-01 1.15638E+00 4.58692E-02-3.58412E-01 1.25320E+01
 -1       272 1.45994E+01-9.67217E-04 3.75362E-01 6.21161E-01 1.21992E-01 1.37790E+01
 -1       273 2.71997E+01 1.84902E-02-5.65868E-01 3.62954E-01-3.17990E-01 8.19519E+00
 -1       274-7.08465E+00-9.57901E-02 6.94913E-01 2.03364E-01-1.40125E-01 9.57313E+00
 -1       275-2.02936E+00-5.96999E-02 1.64851E+00 4.05314E-01 1.92196E-01 4.93017E+00
 -1       276-8.48864E+00 1.17379E-01-1.87914E+00 6.51239E-01 4.49087E-02 1.56326E+01
 -1       277-1.26771E+01 2.03300E-02 1.38660E+00 5.61433E-01-1.02186E-01 5.40897E+00
 -1       278 1.71102E+01-7.03184E-02 2.06690E-01 3.54786E-01-9.91820E-02 1.24265E+01
 -1       279-2.93397E+01-1.59236E-02-9.62758E-01 4.03089E-01-1.80722E-01 9.97868E+00
 -1       280 7.08828E+00-7.95475E-02 1.68304E+00 1.46516E+00 8.39041E-02 1.61532E+01
 -3
    1PSTEP                         4           1           1          
    1PGM                1.000000E+00                                  
    1PGK                1.225495E+11                                  
    1PHID                         -1                                  
    1PSUBC                         0                                  
    1PMODE                         2                                  
  100CL  102 5.57155E+04         280                     2    2MODAL      1
 -4  DISP        4    1
 -5  D1          1    2    1    0
 -5  D2          1    2    2    0
 -5  D3          1    2    3    0
 -5  ALL         1    2    0    0    1ALL
 -1         1 0.00000E+00 0.00000E+00 0.00000E+00
 -1         2 0.00000E+00 0.00000E+00 0.00000E+00
 -1         3 0.00000E+00 0.00000E+00 0.00000E+00
 -1         4 0.00000E+00 0.00000E+00 0.00000E+00
 -1         5-2.60844E+02-6.09101E+02 3.88452E+01
 -1         6-2.96869E+02-6.10124E+02 3.93723E+01
 -1         7 2.96768E+02-6.09323E+02 3.98795E+01
 -1         8 2.59501E+02-6.09515E+02 4.08542E+01
 -1         9 0.00000E+00 0.00000E+00 0.00000E+00
 -1        10 0.00000E+00 0.00000E+00 0.00000E+00
 -1        11 0.00000E+00 0.00000E+00 0.00000E+00
 -1        12 0.00000E+00 0.00000E+00 0.00000E+00
 -1        13 0.00000E+00 0.00000E+00 0.00000E+00
 -1        14 0.00000E+00 0.00000E+00 0.00000E+00
 -1        15 0.00000E+00 0.00000E+00 0.00000E+00
 -1        16 0.00000E+00 0.00000E+00 0.00000E+00
 -1        17 0.00000E+00 0.00000E+00 0.00000E+00
 -1        18 0.00000E+00 0.00000E+00 0.00000E+00
 -1        19 0.00000E+00 0.00000E+00 0.00000E+00
 -1        20 0.00000E+00 0.00000E+00 0.00000E+00
 -1        21-2.80629E+02-6.09226E+02 3.86690E+01
 -1        22-2.71492E+02-6.08498E+02 3.89802E+01
 -1        23-2.88310E+02-6.08462E+02 3.81288E+01
 -1        24 1.89893E+01-5.92759E+02 4.02862E+01
 -1        25-1.11453E+02-5.98936E+02 4.00153E+01
 -1        26 1.48173E+02-5.99069E+02 3.97493E+01
 -1        27 2.81660E+02-6.06536E+02 3.90677E+01
 -1        28 2.88918E+02-6.07635E+02 3.82248E+01
 -1        29 2.71898E+02-6.07710E+02 4.10090E+01
 -1        30-1.78707E+01-5.90863E+02 3.90002E+01
 -1        31-1.47075E+02-5.99483E+02 3.86558E+01
 -1        32 1.10438E+02-5.99215E+02 4.05592E+01
 -1        33-2.25878E+02-2.71104E+02 1.69489E+01
 -1        34-1.45986E+02-1.07405E+02 7.93614E+00
 -1        35-2.56963E+02-4.45596E+02 2.93065E+01
 -1        36-2.59368E+02-2.71686E+02 1.77268E+01
 -1        37-1.66662E+02-1.07174E+02 5.82112E+00
 -1        38-2.92762E+02-4.46335E+02 2.82296E+01
 -1        39 2.58546E+02-2.71848E+02 1.85888E+01
 -1        40 1.67242E+02-1.06839E+02 6.03317E+00
 -1        41 2.92505E+02-4.45620E+02 2.90402E+01
 -1        42 2.25042E+02-2.73208E+02 1.83159E+01
 -1        43 1.46665E+02-1.07377E+02 7.90605E+00
 -1        44 2.55790E+02-4.46177E+02 2.96911E+01
 -1        45 0.00000E+00 0.00000E+00 0.00000E+00
 -1        46 0.00000E+00 0.00000E+00 0.00000E+00
 -1        47 0.00000E+00 0.00000E+00 0.00000E+00
 -1        48 0.00000E+00 0.00000E+00 0.00000E+00
 -1        49 0.00000E+00 0.00000E+00 0.00000E+00
 -1        50 0.00000E+00 0.00000E+00 0.00000E+00
 -1        51 0.00000E+00 0.00000E+00 0.00000E+00
 -1        52 0.00000E+00 0.00000E+00 0.00000E+00
 -1        53 0.00000E+00 0.00000E+00 0.00000E+00
 -1        54 0.00000E+00 0.00000E+00 0.00000E+00
 -1        55 0.00000E+00 0.00000E+00 0.00000E+00
 -1        56 0.00000E+00 0.00000E+00 0.00000E+00
 -1        57 0.00000E+00 0.00000E+00 0.00000E+00
 -1        58 0.00000E+00 0.00000E+00 0.00000E+00
 -1        59 0.00000E+00 0.00000E+00 0.00000E+00
 -1        60 0.00000E+00 0.00000E+00 0.00000E+00
 -1        61 0.00000E+00 0.00000E+00 0.00000E+00
 -1        62 0.00000E+00 0.00000E+00 0.00000E+00
 -1        63 0.00000E+00 0.00000E+00 0.00000E+00
 -1        64 0.00000E+00 0.00000E+00 0.00000E+00
 -1        65 0.00000E+00 0.00000E+00 0.00000E+00
 -1        66 0.00000E+00 0.00000E+00 0.00000E+00
 -1        67 0.00000E+00 0.00000E+00 0.00000E+00
 -1        68 0.00000E+00 0.00000E+00 0.00000E+00
 -1        69 0.00000E+00 0.00000E+00 0.00000E+00
 -1        70-2.07996E+00-5.94555E+02 3.85701E+01
 -1        71-1.37647E+02-5.99044E+02 3.86470E+01
 -1        72 1.21363E+02-5.99378E+02 3.98105E+01
 -1        73 1.37991E+02-5.99073E+02 3.92427E+01
 -1        74-1.20766E+02-5.98959E+02 3.90609E+01
 -1        75 4.95336E+01-5.93748E+02 3.94576E+01
 -1        76 1.88128E+02-6.05291E+02 4.07727E+01
 -1        77 1.99764E+02-6.04242E+02 3.94610E+01
 -1        78-9.30969E+00-5.92076E+02 3.87392E+01
 -1        79 5.79235E+01-5.95582E+02 3.89167E+01
 -1        80 1.29707E+02-6.01193E+02 3.89048E+01
 -1        81 7.61463E+01-5.93858E+02 4.00450E+01
 -1        82 2.14884E+02-6.05013E+02 3.93622E+01
 -1        83 2.07915E+02-6.04287E+02 3.88533E+01
 -1        84 6.59233E+01-5.95335E+02 3.91718E+01
 -1        85 7.66717E+00-5.92464E+02 3.93809E+01
 -1        86-4.95381E+01-5.94227E+02 3.98181E+01
 -1        87-1.88631E+02-6.05136E+02 3.92375E+01
 -1        88-1.97722E+02-6.05179E+02 3.86092E+01
 -1        89-5.93252E+01-5.94430E+02 3.86636E+01
 -1        90-1.29355E+02-6.00797E+02 3.84017E+01
 -1        91-7.57292E+01-5.93540E+02 3.88530E+01
 -1        92-2.14524E+02-6.05657E+02 3.87770E+01
 -1        93-6.70154E+01-5.94884E+02 3.87606E+01
 -1        94-2.06808E+02-6.05070E+02 3.83915E+01
 -1        95-2.42154E+02-2.70089E+02 1.75571E+01
 -1        96-2.83111E+02-4.46340E+02 2.84187E+01
 -1        97-2.67869E+02-4.45819E+02 2.89525E+01
 -1        98-1.51236E+02-1.07606E+02 7.56152E+00
 -1        99-1.56308E+02-1.06617E+02 6.36576E+00
 -1       100-8.55513E+01-4.22600E+01 3.62167E+00
 -1       101-8.86771E+01-4.34873E+01 3.24129E+00
 -1       102-1.47164E+02-1.04207E+02 6.91607E+00
 -1       103-2.01220E+02-1.84020E+02 1.22541E+01
 -1       104-2.04845E+02-1.83329E+02 1.16048E+01
 -1       105-8.61543E+01-4.31942E+01 2.98012E+00
 -1       106-9.18068E+01-4.19973E+01 1.80176E+00
 -1       107-2.66404E+02-3.59129E+02 2.29487E+01
 -1       108-2.76231E+02-3.59572E+02 2.29507E+01
 -1       109-2.48630E+02-2.69963E+02 1.75407E+01
 -1       110-2.74839E+02-4.45250E+02 2.84474E+01
 -1       111-2.84067E+02-5.29598E+02 3.36712E+01
 -1       112-2.92083E+02-5.29812E+02 3.39495E+01
 -1       113-2.60326E+02-3.58364E+02 2.31545E+01
 -1       114-2.76219E+02-5.29400E+02 3.40563E+01
 -1       115-2.34558E+02-2.69429E+02 1.73695E+01
 -1       116-2.51415E+02-3.58828E+02 2.33644E+01
 -1       117-2.66316E+02-5.29209E+02 3.41584E+01
 -1       118-1.95380E+02-1.85517E+02 1.18212E+01
 -1       119-2.14330E+02-1.84881E+02 1.20140E+01
 -1       120 2.40510E+02-2.71679E+02 1.78232E+01
 -1       121 2.83245E+02-4.46337E+02 2.92764E+01
 -1       122 1.57736E+02-1.05867E+02 7.28438E+00
 -1       123 2.66578E+02-4.47385E+02 2.91083E+01
 -1       124 1.55200E+02-1.07484E+02 7.02082E+00
 -1       125 2.50008E+02-3.60352E+02 2.38687E+01
 -1       126 2.57698E+02-3.60456E+02 2.34300E+01
 -1       127 2.34762E+02-2.71927E+02 1.83127E+01
 -1       128 2.65407E+02-5.29553E+02 3.50261E+01
 -1       129 1.97857E+02-1.86243E+02 1.22295E+01
 -1       130 2.05052E+02-1.85097E+02 1.27630E+01
 -1       131 8.67755E+01-4.14141E+01 3.43277E+00
 -1       132 2.75422E+02-3.59271E+02 2.38249E+01
 -1       133 2.47514E+02-2.71415E+02 1.80556E+01
 -1       134 2.65022E+02-3.59652E+02 2.37152E+01
 -1       135 2.92175E+02-5.29344E+02 3.45658E+01
 -1       136 2.84555E+02-5.27979E+02 3.41567E+01
 -1       137 2.73725E+02-4.45881E+02 2.93677E+01
 -1       138 8.58894E+01-4.27051E+01 3.43332E+00
 -1       139 1.52890E+02-1.07874E+02 7.55503E+00
 -1       140 2.06482E+02-1.83978E+02 1.23777E+01
 -1       141 9.23358E+01-4.14227E+01 2.05561E+00
 -1       142 2.16324E+02-1.84345E+02 1.24507E+01
 -1       143 2.76324E+02-5.28228E+02 3.49350E+01
 -1       144 8.82695E+01-4.25119E+01 2.20901E+00
 -1       145 1.59881E+01-2.68771E+02 1.73065E+01
 -1       146 6.82582E+01-1.07974E+02 7.27476E+00
 -1       147 1.41363E+02-4.43416E+02 2.89282E+01
 -1       148-1.05259E+02-4.43412E+02 2.93336E+01
 -1       149-4.84647E+01-1.08638E+02 7.29105E+00
 -1       150-7.94382E+00-4.83310E+01 2.73849E+00
 -1       151-4.46415E+01-4.40193E+01 3.22205E+00
 -1       152 8.87552E+00-1.09644E+02 6.84896E+00
 -1       153 1.93916E+01-4.75703E+01 3.05475E+00
 -1       154 5.12737E+01-1.84715E+02 1.23075E+01
 -1       155-2.57906E+01-1.84366E+02 1.18108E+01
 -1       156 5.64318E+01-4.32135E+01 2.61345E+00
 -1       157-1.22916E+02-1.84383E+02 1.15086E+01
 -1       158 1.50590E+02-1.84901E+02 1.25462E+01
 -1       159 1.15636E+02-2.69664E+02 1.79573E+01
 -1       160 2.00586E+02-3.58850E+02 2.35577E+01
 -1       161 7.25042E+01-3.56604E+02 2.32213E+01
 -1       162 2.18199E+02-5.27964E+02 3.47313E+01
 -1       163 8.10056E+01-5.22326E+02 3.48498E+01
 -1       164 1.75059E+01-4.41026E+02 2.90293E+01
 -1       165-4.37066E+01-5.22314E+02 3.47679E+01
 -1       166-3.70377E+01-3.56357E+02 2.31794E+01
 -1       167-1.66226E+02-3.58710E+02 2.33242E+01
 -1       168-8.47966E+01-2.69101E+02 1.76441E+01
 -1       169-1.81905E+02-5.27809E+02 3.42730E+01
 -1       170-1.64998E+01-2.69322E+02 1.84232E+01
 -1       171 1.05247E+02-4.43993E+02 2.97033E+01
 -1       172-1.40472E+02-4.44394E+02 2.84902E+01
 -1       173 4.87019E+01-1.08627E+02 6.95830E+00
 -1       174-6.92506E+01-1.08417E+02 6.78302E+00
 -1       175 1.22197E+02-1.85534E+02 1.22213E+01
 -1       176 4.46866E+01-4.35750E+01 2.81018E+00
 -1       177 2.44686E+01-1.85255E+02 1.22889E+01
 -1       178 8.56848E+01-2.70795E+02 1.76872E+01
 -1       179 1.66031E+02-3.59646E+02 2.40286E+01
 -1       180 1.81095E+02-5.28246E+02 3.49900E+01
 -1       181 3.86114E+01-3.57592E+02 2.41011E+01
 -1       182-2.00845E+02-3.59470E+02 2.31160E+01
 -1       183-7.19496E+01-3.57283E+02 2.32317E+01
 -1       184-1.15005E+02-2.70175E+02 1.78617E+01
 -1       185-2.17885E+02-5.28647E+02 3.41378E+01
 -1       186-7.90954E+01-5.22690E+02 3.40598E+01
 -1       187-1.70029E+01-4.43838E+02 2.93589E+01
 -1       188 8.26153E+00-4.71940E+01 2.69533E+00
 -1       189-1.02280E+01-1.10124E+02 6.94171E+00
 -1       190-1.50315E+02-1.84520E+02 1.25865E+01
 -1       191-5.30904E+01-1.84448E+02 1.24000E+01
 -1       192-5.65191E+01-4.37254E+01 2.28649E+00
 -1       193-1.95548E+01-4.81323E+01 2.72629E+00
 -1       194 4.33014E+01-5.22635E+02 3.47188E+01
 -1       195 3.37200E+01-1.84611E+02 1.19664E+01
 -1       196-4.92971E+01-3.57456E+02 2.34015E+01
 -1       197-5.28581E+01-4.44109E+01 3.39339E+00
 -1       198-9.66293E+01-1.07687E+02 7.30976E+00
 -1       199-1.15440E+02-2.24654E+02 1.45429E+01
 -1       200-1.40131E+02-3.14046E+02 2.03668E+01
 -1       201-4.78002E+01-1.45945E+02 9.53543E+00
 -1       202 1.26794E+02-3.57406E+02 2.34427E+01
 -1       203 2.07420E+02-4.45070E+02 2.91382E+01
 -1       204 9.32812E+01-4.00067E+02 2.62266E+01
 -1       205 3.79714E+01-3.99309E+02 2.62927E+01
 -1       206-1.53984E+01-3.12620E+02 2.03383E+01
 -1       207 1.33422E+02-5.24708E+02 3.43670E+01
 -1       208 2.09721E+02-5.27534E+02 3.42360E+01
 -1       209 4.66271E+01-4.42869E+02 2.93484E+01
 -1       210 1.14229E+02-5.25044E+02 3.48613E+01
 -1       211-7.06854E+01-5.22633E+02 3.40263E+01
 -1       212-1.40639E+02-5.25492E+02 3.39317E+01
 -1       213-9.15808E+01-1.84492E+02 1.24568E+01
 -1       214-1.05671E+02-1.07527E+02 6.68247E+00
 -1       215-2.70999E+01-4.64325E+01 3.07466E+00
 -1       216-2.10152E+01-1.10819E+02 6.87819E+00
 -1       217 1.25239E+02-5.24556E+02 3.44955E+01
 -1       218 1.93134E+02-5.27719E+02 3.49995E+01
 -1       219 1.24465E+02-4.42601E+02 2.92044E+01
 -1       220 8.09506E+01-3.13080E+02 2.01852E+01
 -1       221-2.80229E+01-4.82258E+02 3.14361E+01
 -1       222-7.30073E+00-4.41143E+02 2.90328E+01
 -1       223-9.28917E+01-4.00481E+02 2.60930E+01
 -1       224-2.95500E+01-3.12659E+02 2.05182E+01
 -1       225-1.09074E+02-2.69672E+02 1.76199E+01
 -1       226-5.45800E+01-1.45427E+02 9.48326E+00
 -1       227-6.80035E+01-2.26183E+02 1.51044E+01
 -1       228 1.23552E+01-2.26353E+02 1.49917E+01
 -1       229 2.86158E+00-1.11272E+02 7.27723E+00
 -1       230-1.62855E+01-1.46519E+02 9.43327E+00
 -1       231 1.34767E+02-3.15170E+02 2.05751E+01
 -1       232 2.75377E+01-3.98703E+02 2.60572E+01
 -1       233 1.19437E+02-2.27117E+02 1.47691E+01
 -1       234-5.90333E+01-1.09462E+02 6.94344E+00
 -1       235 1.09070E+02-2.69389E+02 1.79023E+01
 -1       236 2.49058E+01-2.25987E+02 1.47784E+01
 -1       237 8.04389E+00-7.78828E+01 4.96960E+00
 -1       238 5.91167E-02-2.68944E+02 1.75948E+01
 -1       239-1.14896E+02-5.24778E+02 3.45499E+01
 -1       240-1.97552E+01-4.82526E+02 3.18782E+01
 -1       241-8.66144E+01-4.84543E+02 3.17052E+01
 -1       242-7.70286E+01-4.00344E+02 2.62099E+01
 -1       243-1.92183E+02-5.27788E+02 3.40573E+01
 -1       244-1.59553E+02-4.86340E+02 3.14346E+01
 -1       245-1.47908E+02-4.01847E+02 2.60284E+01
 -1       246-1.82352E+02-4.45077E+02 2.90941E+01
 -1       247-1.31478E+02-3.13099E+02 2.01577E+01
 -1       248 9.38125E+01-1.07602E+02 7.11876E+00
 -1       249 8.99036E+01-1.44985E+02 9.83820E+00
 -1       250 4.45409E+01-1.45605E+02 9.45910E+00
 -1       251 1.13067E+02-2.28187E+02 1.51163E+01
 -1       252 5.05026E+01-4.28604E+01 3.02490E+00
 -1       253 5.78745E+01-7.38263E+01 5.24504E+00
 -1       254 3.05956E+01-7.54157E+01 4.82388E+00
 -1       255 2.79367E+01-4.54388E+01 2.80806E+00
 -1       256 6.03685E+00-7.73092E+01 4.63991E+00
 -1       257 9.65241E+01-1.44856E+02 9.85990E+00
 -1       258-1.56476E+02-4.01553E+02 2.59133E+01
 -1       259-1.11665E+01-7.77408E+01 4.64039E+00
 -1       260 5.54524E+01-4.34911E+01 3.31335E+00
 -1       261 3.46808E+01-4.53900E+01 2.89476E+00
 -1       262 1.41119E+02-5.24994E+02 3.45639E+01
 -1       263-2.07358E+02-4.45628E+02 2.85488E+01
 -1       264-3.39669E+01-4.61564E+01 2.63467E+00
 -1       265-9.29942E+01-1.07908E+02 7.38514E+00
 -1       266-5.67666E+01-4.39580E+01 2.98435E+00
 -1       267 1.81613E+02-4.45751E+02 2.94616E+01
 -1       268 1.06055E+02-1.06893E+02 6.94376E+00
 -1       269-2.08999E+02-5.28063E+02 3.37185E+01
 -1       270 6.97311E+01-5.22437E+02 3.45289E+01
 -1       271 1.62767E+01-4.72554E+01 3.16799E+00
 -1       272 5.40339E+01-1.45670E+02 9.55146E+00
 -1       273-7.32904E+01-1.84123E+02 1.18063E+01
 -1       274-1.91691E+02-3.58336E+02 2.30515E+01
 -1       275-1.32407E+02-5.25301E+02 3.40332E+01
 -1       276-3.23620E+01-4.57168E+01 2.81118E+00
 -1       277 1.03039E+02-3.58047E+02 2.38311E+01
 -1       278 1.42835E+02-1.84811E+02 1.23225E+01
 -1       279-3.34318E+01-1.10004E+02 6.86401E+00
 -1       280 3.13174E+01-4.55085E+01 2.64709E+00
 -3
    1PSTEP                         5           1           1          
    1PGM                1.000000E+00                                  
    1PGK                1.225495E+11                                  
    1PHID                         -1                                  
    1PSUBC                         0                                  
    1PMODE                         2                                  
  100CL  102 5.57155E+04         280                     2    2MODAL      1
 -4  STRESS      6    1
 -5  SXX         1    4    1    1
 -5  SYY         1    4    2    2
 -5  SZZ         1    4    3    3
 -5  SXY         1    4    1    2
 -5  SYZ         1    4    2    3
 -5  SZX         1    4    3    1
 -1         1-1.32127E+07 1.76329E+05 3.82698E+03-1.93198E+06 1.83621E+05-1.61885E+05
 -1         2-1.51051E+07 1.89289E+05 5.39680E+04-1.96428E+06-1.93438E+05 4.19122E+05
 -1         3 1.51764E+07-2.06937E+05-5.90888E+04-1.89996E+06 1.89318E+05 4.24128E+05
 -1         4 1.32745E+07-1.74551E+05-2.54010E+04-1.82222E+06-2.01418E+05-1.88789E+05
 -1         5 2.72084E+05 4.50667E+05 1.03128E+02 3.54627E+05-2.94594E+04-2.53735E+04
 -1         6 3.46318E+05 4.42659E+05 5.97610E+04 3.65725E+05 1.00107E+04-4.54895E+04
 -1         7-3.16621E+05-4.57695E+05-9.42401E+04 3.41094E+05-4.98548E+04-4.01896E+04
 -1         8-2.99608E+05-4.24716E+05-3.60510E+04 3.36648E+05 2.14423E+04 1.93791E+04
 -1         9-1.46645E+07-9.36954E+04 2.01455E+03-2.59032E+06-1.11357E+03 3.12244E+05
 -1        10-1.57776E+07 1.34675E+00 1.66624E-01-2.55551E+06 2.85490E-01 2.46574E+05
 -1        11-1.59691E+07 1.19349E+00 5.16170E-01-2.55062E+06-5.22078E-01 1.27918E+05
 -1        12 8.61024E+05 3.17151E+04 1.84234E+04-3.40921E+06 7.10131E+03 1.45019E+05
 -1        13-4.53642E+06 1.88871E+00-8.26924E-02-3.04246E+06 2.18635E-01 1.85199E+05
 -1        14 6.67104E+06-1.90847E+00-5.31419E-02-2.94371E+06 9.58092E-02 1.62465E+05
 -1        15 1.37602E+07-4.68731E+04-7.47986E+04-2.07992E+06-5.92825E+03 2.73822E+05
 -1        16 1.58970E+07-1.25030E+00-6.03496E-01-2.49551E+06 5.30063E-01 1.47738E+05
 -1        17 1.55911E+07-7.86191E-01-5.36056E-01-2.41470E+06-1.51068E-01 1.70507E+05
 -1        18-8.40977E+05 7.60183E+04-6.92500E+03-3.38487E+06-9.04711E+02 1.06241E+05
 -1        19-6.63173E+06 1.93039E+00 1.12386E-01-3.01190E+06-1.95987E-01 1.29701E+05
 -1        20 4.57551E+06-1.58528E+00 4.84529E-02-2.91639E+06-4.89576E-02 1.62107E+05
 -1        21 1.93029E+05 4.51418E+05-4.11276E+04 4.27092E+05 1.04035E+04 2.02349E+04
 -1        22 2.78467E+05 3.59148E+05-7.04636E+03 2.80695E+05-5.89557E+03-2.60748E+04
 -1        23 3.05521E+05 3.35135E+05 2.81324E+04 2.49253E+05-1.48908E+03 1.34076E+04
 -1        24 1.07827E+05 1.58166E+04-3.05726E+04-5.35054E+05 5.00549E+04-7.51613E+04
 -1        25 1.70336E+05 6.53690E+05-4.36657E+04-8.20789E+04-9.71287E+03-3.56435E+04
 -1        26-2.25774E+05-6.62562E+05-7.75739E+02-1.24976E+05 1.22506E+04-3.23001E+04
 -1        27-1.71781E+05-3.19865E+05 1.36344E+05 2.25205E+05 1.25928E+04 2.41104E+04
 -1        28-2.53148E+05-2.93681E+05-3.24711E+04 1.82141E+05 5.13863E+03 8.02560E+03
 -1        29-2.00705E+05-3.00565E+05 7.14582E+04 1.87441E+05-6.69094E+03 3.40440E+03
 -1        30-2.65142E+04-5.94678E+03 2.13363E+04-4.83433E+05-4.11119E+04-1.69582E+04
 -1        31 1.57580E+05 7.70412E+05-9.19674E+03-6.72244E+04-1.18036E+04-2.63833E+03
 -1        32-1.48344E+05-7.46048E+05 3.16501E+04-8.65884E+04 4.03018E+04-3.75386E+04
 -1        33-4.17112E+06 8.58904E+04 3.07458E+03-6.32244E+05 7.74683E+03 1.17976E+04
 -1        34-9.03504E+06 1.75672E+05-8.18024E+04-6.91578E+05 9.49525E+03 1.10331E+05
 -1        35-1.39863E+06 1.33423E+05-3.33629E+04-1.08555E+05 1.56643E+04 2.57227E+04
 -1        36-4.73946E+06 6.62738E+03-8.87483E+03-4.59164E+05 4.87386E+04 3.09716E+04
 -1        37-1.03746E+07 1.69454E+05-6.08159E+04-6.90156E+05-2.37444E+04 7.28746E+04
 -1        38-1.50003E+06 1.38853E+05-2.98387E+04-1.02530E+05-5.54161E+03 2.78274E+04
 -1        39 4.53199E+06-1.79128E+04 8.21659E+03-4.04637E+05-8.59128E+02 3.34018E+04
 -1        40 1.03417E+07-1.07891E+05 2.94001E+04-7.18088E+05 9.00239E+04 2.04819E+05
 -1        41 1.52888E+06-1.28979E+05 1.52343E+04-9.10761E+04 2.38741E+04-2.92341E+03
 -1        42 4.19825E+06-3.82446E+04 7.85766E+03-5.88116E+05 6.94182E+04-1.82997E+04
 -1        43 9.00160E+06-1.41391E+05 5.33078E+04-6.32702E+05-6.65185E+04 3.77270E+04
 -1        44 1.37834E+06-1.53753E+05 2.28738E+04-1.32178E+05-2.62868E+04 3.47241E+04
 -1        45-1.80405E+05 7.85114E+04-1.14791E+04-3.51498E+06 4.70941E+04 3.06862E+05
 -1        46-5.02829E+06-3.36318E+05-3.34781E+04-2.94111E+06-2.70664E+04 1.61558E+05
 -1        47-4.64184E+06-5.07867E+05 1.65752E+04-3.16548E+06-1.13605E+05 4.30177E+04
 -1        48 4.55302E+06 2.62552E+05-1.18229E+04-3.04082E+06 4.17115E+04 2.34584E+05
 -1        49 5.38148E+06 7.31836E+04 2.21964E+04-2.87623E+06 4.76913E+04 1.62855E+05
 -1        50-1.01023E+07-8.06994E+04-1.96180E+03-2.53866E+06-4.13323E+04 3.19432E+05
 -1        51-1.03626E+07 1.14925E+00 2.19230E-01-2.70748E+06-3.51491E-01 2.22525E+05
 -1        52-6.69235E+06 2.27133E+00 3.62337E+03-3.04605E+06 9.89364E+04 2.63652E+05
 -1        53-1.95621E+06-1.87057E+05-6.23331E+03-3.19625E+06-9.66460E+04 1.63147E+05
 -1        54-1.00604E+07-2.30924E+05-6.94770E+03-2.83693E+06-1.18937E+05 3.42942E+05
 -1        55-8.82396E+06-8.70622E+04 1.55497E+04-2.55622E+06 3.57577E+04 3.16510E+04
 -1        56-2.47662E+06-1.12016E+05-5.50804E+02-3.43348E+06 5.62838E+04 1.41676E+05
 -1        57-1.65038E+06-1.38370E+05 1.96975E+04-3.35404E+06-5.93363E+04 2.12959E+05
 -1        58 2.81713E+05 1.29405E+05-1.58135E-01-3.40533E+06-4.02986E+03 2.14887E+05
 -1        59 3.19089E+06-1.84035E+00-5.13727E-02-3.11783E+06 6.08633E-02 1.84969E+05
 -1        60 1.00722E+07 7.02995E+04-3.84219E+03-2.50468E+06 3.32303E+04 3.03059E+05
 -1        61 1.97837E+06 6.91309E+04-2.85647E+03-3.10796E+06 3.31382E+04 7.07206E+04
 -1        62-2.75862E+06-7.90201E+04-1.01344E+04-3.27800E+06 4.45776E+04 1.05724E+05
 -1        63-2.96458E+05-1.01849E+00 1.44421E-01-3.35391E+06-1.65800E-01 1.93401E+05
 -1        64 8.64126E+06 2.02474E+05-3.20098E+04-2.58545E+06 8.52325E+04 3.95471E+05
 -1        65 8.63596E+06 1.11133E+05-2.15514E+04-2.45720E+06-4.47920E+04 5.13762E+04
 -1        66 2.32312E+06-1.84352E+00 1.96373E-01-3.25292E+06-1.93270E-01 2.03213E+05
 -1        67 5.60839E+06-2.00327E+00 1.53099E+04-3.02408E+06-8.64492E+04 1.00252E+05
 -1        68 2.00940E+06 6.27346E+04-9.47639E+03-3.17049E+06 2.66301E+04 1.53224E+05
 -1        69 9.99572E+06-1.23915E+00-1.82099E-01-2.66097E+06 3.13790E-01 2.48356E+05
 -1        70-2.31726E+05-4.96214E+04-1.54883E+04-7.53918E+05 4.77972E+04 6.23394E+04
 -1        71-1.82453E+04 1.03169E+06 1.58774E+04-1.23154E+05-1.19452E+04 1.58375E+04
 -1        72 2.00785E+05-9.25879E+05 7.13589E+04-8.52939E+04 3.62123E+04-1.72939E+04
 -1        73 9.72880E+03-9.47906E+05-5.84864E+04-9.72387E+04-3.52881E+04 4.52143E+04
 -1        74-5.09170E+04 9.95846E+05-8.89768E+04-1.45665E+05 1.11281E+04 3.42668E+04
 -1        75 1.34658E+05-7.47278E+05 5.11166E+04-2.94576E+05 2.49135E+04 1.81904E+04
 -1        76-4.45868E+04-7.63779E+05 1.79788E+04 6.61534E+04 9.17835E+03-3.93881E+04
 -1        77-3.96118E+04-6.36151E+05 1.42438E+05-1.41676E+04 9.75053E+03-1.34574E+04
 -1        78-2.74965E+04 1.85293E+05 1.72060E+04-5.05290E+05 7.50994E+04 4.72709E+04
 -1        79 7.43733E+03-6.42014E+05 2.90778E+04-3.84011E+05 1.63158E+05 1.98379E+04
 -1        80-3.32334E+05-4.79247E+05 4.23842E+04-3.13601E+05 1.75007E+04 2.45058E+04
 -1        81-1.66562E+05-6.08512E+05-3.79000E+04-2.93370E+05 2.88898E+04-2.45057E+04
 -1        82-5.91610E+04-7.98405E+05-9.94565E+04 9.44396E+04-1.34749E+04 2.33421E+04
 -1        83-2.21887E+04-6.47909E+05 3.87720E+04 5.95983E+03-9.37448E+02 4.96541E+04
 -1        84-1.11274E+05-5.97290E+05-7.28402E+04-2.68026E+05-1.27417E+05 2.16725E+04
 -1        85 1.20661E+04-1.52973E+05-6.86445E+04-4.89243E+05-1.40378E+04-2.95893E+04
 -1        86 1.70882E+05 6.23278E+05-7.67104E+04-3.52034E+05 7.42825E+04-1.08155E+04
 -1        87 1.72104E+04 8.18668E+05-4.07565E+04 5.74088E+04 2.53570E+04 4.24146E+03
 -1        88-2.02419E+04 7.73362E+05-4.47510E+04 1.41192E+05-3.06874E+04 3.00522E+04
 -1        89-5.10576E+03 6.18222E+05-7.48154E+04-5.04245E+05-1.15163E+05 1.94110E+04
 -1        90 2.60532E+03 5.86845E+05 9.06824E+03-2.59172E+05-3.62235E+03-9.84629E+03
 -1        91 6.72527E+04 7.43043E+05-4.59181E+03-2.57310E+05-2.78884E+04-9.96746E+03
 -1        92 6.79499E+04 8.18942E+05 6.07075E+04 9.46552E+04-3.23963E+04 2.31048E+03
 -1        93 1.10970E+05 5.88481E+05 2.45101E+04-3.40940E+05 1.23867E+05 1.85683E+04
 -1        94 5.85204E+04 8.33461E+05-2.71855E+04 1.62600E+04 3.27369E+03 2.83029E+04
 -1        95-5.11184E+06-4.33240E+04-1.29051E+04-8.19267E+05-1.24835E+04 1.26170E+05
 -1        96-1.26793E+06 5.55509E+04 1.61326E+02-2.31357E+05-1.83209E+04 1.03105E+05
 -1        97-1.09082E+06-6.31539E+04-3.21168E+04-1.09631E+05-9.28299E+03 7.32953E+04
 -1        98-8.55851E+06-9.88859E+04 1.52438E+03-6.60250E+05-1.05255E+04 2.82801E+05
 -1        99-9.48424E+06-2.21744E+05-1.41232E+04-1.12488E+06 7.91094E+04 2.79980E+05
 -1       100-1.13906E+07-6.28110E+04-7.13579E+03-1.23126E+06 5.25802E+04-4.80760E+04
 -1       101-1.17196E+07-2.80448E+05-3.16617E+04-1.31546E+06-7.00007E+04 4.76225E+05
 -1       102-9.68610E+06-3.60515E+05-3.69393E+04-1.52863E+06 3.61000E+04 2.16855E+05
 -1       103-7.19944E+06 8.74481E+04-1.88236E+04-3.81665E+05 1.90601E+05 3.72245E+05
 -1       104-7.45316E+06-2.23179E+05-9.54137E+03-1.16043E+06-7.31679E+04 1.50144E+05
 -1       105-1.21792E+07-2.07194E+05-3.72636E+04-2.03612E+06 7.62866E+04 1.10605E+05
 -1       106-1.25442E+07-6.13861E+04-2.57040E+04-1.28238E+06-3.78026E+04 2.21913E+05
 -1       107-2.65847E+06 1.01160E+05-4.46234E+03-5.00757E+05 8.66647E+03 1.27662E+05
 -1       108-2.64786E+06 7.00152E+04 3.61088E+03-2.74065E+05-2.87201E+04 5.52725E+04
 -1       109-4.54856E+06 5.01003E+04 6.78843E+03-6.71294E+05-3.04622E+04 1.04779E+05
 -1       110-1.53896E+06 9.10105E+04-2.59167E+04-1.63334E+05-1.98281E+04 1.70059E+05
 -1       111-5.06544E+05 2.43413E+05-2.55835E+04 5.01157E+04-2.93496E+04 4.46468E+04
 -1       112-3.48857E+05 6.10064E+04 4.13683E+04 8.34683E+04 1.09412E+04 4.15773E+04
 -1       113-2.53695E+06 1.88815E+04-1.94213E+04-4.24336E+05-3.66999E+04 2.06196E+05
 -1       114-3.65995E+05 9.38835E+04-3.04887E+04 1.84615E+05 1.26464E+04 7.65057E+04
 -1       115-4.54585E+06 8.75907E+04 2.43279E+04-6.96804E+05 1.04128E+04 1.44392E+05
 -1       116-2.44912E+06 8.09424E+04-1.25298E+04-3.92547E+05 4.71045E+04 3.13394E+04
 -1       117-2.72636E+05 4.48092E+04-7.18151E+03 7.36247E+04-2.17896E+04-2.52031E+04
 -1       118-6.50918E+06-8.14573E+03 2.17998E+04-6.93523E+05-5.07542E+04 1.17459E+05
 -1       119-7.37643E+06-1.15865E+05-6.70173E+03-6.41092E+05 1.02726E+05 2.36270E+04
 -1       120 4.42711E+06-6.68470E+04 6.89117E+03-8.73117E+05-4.00478E+04 1.71663E+05
 -1       121 1.58562E+06-1.35212E+05 5.65278E+03-2.38048E+05 3.54162E+04 1.56842E+05
 -1       122 9.82931E+06 3.23317E+05 8.98300E+04-1.09429E+06-3.67117E+04 1.74219E+05
 -1       123 1.55094E+06-1.73559E+05 2.05014E+04-1.18903E+05-3.49411E+04 6.60382E+04
 -1       124 9.27548E+06 5.94458E+04 4.46217E+04-5.89127E+05-6.68898E+03 2.05582E+05
 -1       125 2.59712E+06-1.85450E+05 3.79696E+04-2.92163E+05 2.75861E+02 8.78013E+04
 -1       126 2.78432E+06-1.73077E+05-2.82839E+04-3.35595E+05 1.24053E+04 1.16097E+05
 -1       127 3.92862E+06-8.57271E+03 1.97095E+04-5.05364E+05-2.78731E+02 1.41134E+05
 -1       128 3.73158E+05-7.48346E+04-1.75058E+04 7.44495E+04 1.62998E+04 8.91397E+03
 -1       129 6.42435E+06 1.33671E+05 7.70108E+03-5.77058E+05 1.09089E+05 2.94147E+04
 -1       130 6.56989E+06-9.71240E+03 3.27145E+04-7.60929E+05-1.21040E+05 3.21037E+05
 -1       131 1.17380E+07 6.50105E+03 4.43258E+04-1.04947E+06-7.03497E+04-3.59799E+04
 -1       132 2.77951E+06-1.62485E+05-7.81188E+02-2.56655E+05 4.94420E+04 2.60893E+04
 -1       133 4.92460E+06-1.26868E+05-3.06232E+04-5.71105E+05 1.11173E+04 1.12949E+05
 -1       134 2.80626E+06-2.09847E+05 1.84934E+03-6.31214E+05-3.29009E+04 1.52790E+05
 -1       135 3.98523E+05-7.55028E+04-5.48347E+04 7.44904E+04-2.12150E+04 5.50363E+04
 -1       136 5.00627E+05-1.13101E+05 4.94223E+04-5.96336E+04 8.18050E+04 5.32486E+04
 -1       137 1.64601E+06-2.10581E+05 4.61753E+04-3.23384E+05-1.80567E+04 1.36048E+05
 -1       138 1.20113E+07 8.47229E+04 3.89927E+04-1.76267E+06-1.15836E+05 7.10580E+03
 -1       139 9.62032E+06-1.22115E+05-5.65728E+04-9.97100E+05-3.02866E+03 4.45172E+05
 -1       140 6.99139E+06 1.94691E+05 2.07328E+04-9.41852E+05 6.08701E+04 2.26413E+05
 -1       141 1.27442E+07 5.98014E+04 6.83709E+04-1.16027E+06 4.22830E+04 1.94458E+05
 -1       142 6.99885E+06 2.96948E+05 8.51394E+04-3.98435E+05-1.29559E+05-3.81879E+04
 -1       143 4.75824E+05-1.46827E+05 6.10364E+04-3.02968E+04-7.67814E+04 6.35108E+04
 -1       144 1.19367E+07 1.20802E+05-3.39775E+04-1.00314E+06 9.92353E+04 5.37417E+05
 -1       145 6.47389E+05-4.72050E+04 8.43467E+03-3.62535E+06 4.17494E+04 3.57801E+04
 -1       146 4.81617E+06 3.50917E+05-1.15208E+04-2.85223E+06-5.57317E+04 6.72013E+04
 -1       147 1.20543E+06-2.81334E+05 1.97694E+04-1.42181E+06-4.54569E+03-7.91356E+03
 -1       148-1.07487E+06 2.70332E+05-8.16182E+03-1.34034E+06-2.67395E+04 3.54419E+04
 -1       149-3.42966E+06-3.67040E+05 1.16465E+04-2.76563E+06-4.67717E+04 2.28148E+05
 -1       150-1.14926E+06-2.78668E+05 3.35222E+04-3.12090E+06 2.41472E+03 1.12966E+05
 -1       151-7.90778E+06-1.36558E+05 1.75897E+04-2.26190E+06 6.83406E+04-7.69406E+02
 -1       152 6.39527E+05 2.35654E+04 3.88982E+04-3.43080E+06-6.83037E+03-1.46748E+04
 -1       153 2.62787E+06 3.42160E+05 9.27445E+03-3.07364E+06-5.52865E+03 1.35744E+05
 -1       154 2.33311E+06 6.66077E+03 9.51326E+03-3.17114E+06 3.54452E+03 1.13952E+05
 -1       155-1.10870E+06 1.95601E+04-2.60558E+04-3.28258E+06 3.31660E+04 7.78487E+04
 -1       156 9.50383E+06 9.92737E+04-4.46697E+04-2.24768E+06 7.58718E+04 1.92107E+05
 -1       157-4.21460E+06-2.07700E+05 4.28487E+04-1.61325E+06-1.77709E+05 1.26511E+05
 -1       158 5.02567E+06 1.81158E+05 7.17702E+03-1.54690E+06-9.32712E+04 3.72562E+02
 -1       159 2.91457E+06-1.23098E+05-1.12741E+04-2.25150E+06 6.91087E+04 1.47860E+05
 -1       160 2.59959E+06-2.18883E+05 9.80776E+03-9.85012E+05 7.96301E+04 4.20039E+04
 -1       161 1.11552E+06-6.98305E+04 1.42666E+04-2.49367E+06 4.12418E+04 8.67534E+04
 -1       162 4.80221E+05-3.51079E+05-2.28436E+04-4.84618E+05-5.33689E+04-5.82915E+04
 -1       163 5.36414E+05-2.97336E+05-5.01146E+03-9.59226E+05 9.13326E+03-2.38085E+04
 -1       164 1.20052E+05-2.05980E+04 4.50864E+03-2.04202E+06-1.74145E+04-1.44478E+03
 -1       165-3.98158E+05 3.43547E+05-1.47051E+04-9.76584E+05 2.46185E+04-3.79521E+04
 -1       166-7.54357E+05-2.37845E+03 8.46487E+02-2.51411E+06-8.44629E+03 1.45226E+04
 -1       167-2.31133E+06 2.20482E+05-1.95294E+04-1.02218E+06 5.81547E+04-6.32581E+03
 -1       168-1.98760E+06 9.33063E+04-1.15006E+04-2.28665E+06 2.66115E+04-5.52828E+04
 -1       169-4.31784E+05 3.56268E+05 7.37527E+03-4.41938E+05-4.68267E+04 4.02236E+04
 -1       170 5.36847E+04 8.22845E+03 3.25544E+04-3.67807E+06-4.00085E+04 5.20376E+04
 -1       171 9.14273E+05-1.88763E+05 9.08267E+03-1.33259E+06 9.09959E+03 8.26901E+04
 -1       172-1.09872E+06 2.79206E+05-1.37538E+04-1.36795E+06-3.00024E+04 4.01825E+04
 -1       173 3.37406E+06 3.22683E+05-1.78030E+04-2.91882E+06 4.52214E+03 1.51687E+05
 -1       174-4.65141E+06-3.68315E+05-1.11199E+04-2.75717E+06 4.18947E+04-1.67522E+05
 -1       175 4.23454E+06 1.58566E+05-5.64698E+03-1.72619E+06 1.37374E+05 7.24011E+04
 -1       176 7.89815E+06 1.06485E+05-3.10136E+04-2.29080E+06-1.05431E+05-2.83998E+04
 -1       177 1.28499E+06-6.85257E+04 1.77890E+04-3.21142E+06-1.17754E+04 5.06617E+04
 -1       178 2.42139E+06-1.55461E+05-1.04347E+04-2.26517E+06-2.04611E+04-1.73154E+04
 -1       179 2.19176E+06-2.06204E+05 2.82488E+04-1.04681E+06-3.59058E+04-2.53098E+04
 -1       180 3.38603E+05-3.21281E+05-1.47788E+04-4.59418E+05 2.12806E+04 7.66013E+04
 -1       181 7.32540E+05 8.84289E+04 1.96703E+04-2.52743E+06-1.21479E+04 2.50903E+04
 -1       182-2.63749E+06 1.91968E+05 1.09915E+04-9.29705E+05-7.13430E+04 1.47494E+04
 -1       183-9.23992E+05-1.36612E+04 8.90582E+03-2.51283E+06-3.96418E+04 5.68515E+04
 -1       184-2.48949E+06 9.45910E+04 2.53886E+04-2.31694E+06-5.10447E+03 1.59210E+05
 -1       185-4.36316E+05 3.32177E+05 1.41350E+04-4.25384E+05 3.36526E+04-4.54388E+04
 -1       186-4.99328E+05 3.62833E+05-2.56456E+03-8.86458E+05-3.53381E+04 4.01846E+04
 -1       187-5.48338E+04 1.18980E+04 3.11440E+04-1.99532E+06-1.03081E+05-3.91384E+04
 -1       188 1.13974E+06 3.24730E+05-1.03354E+04-3.12924E+06-9.17408E+03 4.16072E+04
 -1       189-6.59984E+05 1.49104E+03 2.69877E+04-3.44571E+06-3.43741E+04 1.54501E+05
 -1       190-5.07121E+06-2.31759E+05-5.64115E+03-1.57758E+06 1.85589E+05-3.88369E+04
 -1       191-2.09133E+06 4.77177E+04 1.58273E+04-3.30429E+06-8.90455E+04-1.12549E+03
 -1       192-9.51915E+06-1.29270E+05 2.66656E+04-2.28244E+06-7.04824E+04 1.59748E+05
 -1       193-2.71196E+06-3.10734E+05-2.77656E+04-3.07800E+06 1.85064E+04 3.14719E+04
 -1       194 3.52234E+05-3.62587E+05 3.19223E+04-9.55279E+05-6.67836E+04 7.08736E+03
 -1       195 1.55373E+06 5.21653E+04-9.72863E+03-3.56973E+06-2.50370E+03 2.24925E+05
 -1       196-9.00795E+05 1.13256E+05 9.04776E+02-2.80199E+06-8.52483E+03 2.10260E+05
 -1       197-6.68017E+06-4.73211E+05 2.14107E+03-1.83153E+06-1.13657E+05 1.38374E+05
 -1       198-5.59598E+06-3.85828E+05-4.68224E+04-1.88723E+06 7.07582E+04-8.09280E+04
 -1       199-4.26602E+06 2.36211E+05 2.00954E+04-1.92668E+06 7.65784E+04 3.34437E+05
 -1       200-2.94468E+06 1.71289E+05 9.95890E+03-1.77915E+06-7.17121E+04 1.88238E+05
 -1       201-2.46532E+06-2.08608E+05 1.57493E+04-3.14477E+06-1.22723E+04 4.12682E+04
 -1       202 1.73543E+06-1.41005E+05 8.54317E+03-1.90492E+06 3.32906E+04 1.17077E+05
 -1       203 1.42427E+06-2.26893E+05 1.84177E+04-8.22427E+05 1.33769E+03 8.40149E+04
 -1       204 9.14695E+05-7.57433E+04-1.49382E+04-1.77520E+06-1.88859E+04 1.40363E+05
 -1       205 3.52218E+05 1.60330E+04 9.85128E+03-2.30716E+06-3.77029E+03 3.63275E+04
 -1       206-1.81198E+05-5.71583E+04 7.70033E+03-3.34594E+06 4.90921E+04 7.35560E+04
 -1       207 5.49744E+05-2.91773E+05-2.78776E+04-5.46769E+05 5.06387E+04 1.46515E+05
 -1       208 5.67636E+05-4.48138E+05-1.91778E+04-2.39568E+05 3.29092E+04 1.40801E+05
 -1       209 3.83093E+05-2.26409E+05 3.75795E+04-1.80039E+06-3.78001E+04 6.87399E+04
 -1       210 5.74174E+05-5.64498E+05 2.82435E+04-6.84646E+05 3.97352E+03 6.08660E+04
 -1       211-5.05978E+05 3.94661E+05-4.49883E+03-1.05624E+06 1.47144E+04 6.33964E+04
 -1       212-5.66547E+05 6.41948E+05 1.20484E+02-7.28811E+05-2.81239E+04 1.00340E+04
 -1       213-4.31103E+06 3.13308E+04 1.86756E+04-2.52452E+06 1.05987E+04 1.69661E+05
 -1       214-7.03400E+06-2.40523E+05-3.25157E+04-1.82876E+06 8.11976E+04-8.16088E+04
 -1       215-3.86721E+06-4.91091E+05 5.45507E+03-2.89837E+06-1.01975E+05 2.99329E+05
 -1       216-1.60614E+06-1.81616E+05 2.58074E+04-3.39791E+06-9.42131E+04 8.60720E+04
 -1       217 5.61951E+05-4.13760E+05 1.14741E+04-6.07270E+05-3.06505E+04-3.63327E+04
 -1       218 6.85454E+05-4.72090E+05 4.40128E+04-1.64441E+05-3.91822E+04-4.23623E+04
 -1       219 1.49571E+06-2.93052E+05 7.09857E+02-1.00437E+06 6.94846E+04 4.66526E+04
 -1       220 1.67253E+06-7.51774E+04 2.97348E+03-2.24722E+06-6.97991E+04 1.05161E+05
 -1       221-4.43654E+05 1.82850E+05-2.32614E+04-1.71553E+06 3.52899E+04 2.01900E+05
 -1       222-1.39026E+05 2.59759E+04 2.42800E+04-2.08638E+06-3.67320E+04 5.71659E+04
 -1       223-1.08977E+06 1.85466E+05-1.74671E+04-1.84786E+06 1.52602E+04 1.19078E+05
 -1       224-6.78129E+05-2.96743E+04 1.86922E+04-2.99032E+06 1.35107E+04 1.00391E+05
 -1       225-2.53876E+06 1.83628E+04 1.14901E+04-2.34259E+06 1.77428E+04 1.69957E+05
 -1       226-3.49393E+06-3.47388E+04 2.17994E+03-2.75630E+06 3.81851E+04 2.90864E+05
 -1       227-2.26674E+06-1.07335E+04 1.76097E+04-2.65243E+06-4.89448E+04 8.48875E+04
 -1       228 7.66538E+05-1.48136E+05 1.89463E+04-3.70767E+06 2.69084E+04 9.58179E+04
 -1       229 1.66620E+05 7.57524E+04 1.42301E+04-3.35110E+06-1.72076E+04 1.16793E+05
 -1       230-6.26905E+05-1.02894E+05-1.49345E+04-3.39216E+06 6.65478E+00 4.11996E+05
 -1       231 2.24974E+06-9.62511E+04 2.06349E+04-1.81961E+06 2.28074E+04 2.66202E+05
 -1       232 4.75123E+05-1.25902E+05 4.40329E+03-2.35459E+06-3.53998E+03 2.60138E+05
 -1       233 3.06737E+06 2.59530E+04 2.25110E+04-2.15634E+06-5.06685E+04 1.66389E+05
 -1       234-3.21866E+06-2.82839E+05-9.77663E+03-2.30944E+06 4.93451E+04 1.78953E+05
 -1       235 2.80760E+06-1.07441E+05-1.20956E+04-2.30334E+06 1.19390E+04 1.80594E+05
 -1       236 9.17196E+05-1.15976E+05 5.32833E+02-3.36721E+06 1.36478E+04 1.32906E+05
 -1       237 8.09659E+05 1.72476E+05-2.54018E+04-3.50058E+06 5.79848E+04 3.36012E+05
 -1       238 1.10541E+05-1.57445E+05 1.67332E+04-3.62590E+06-9.91901E+04 3.75934E+05
 -1       239-5.45660E+05 6.05036E+05-4.38743E+04-7.44520E+05 1.40384E+04 6.36189E+04
 -1       240-3.18078E+05 1.15717E+05-8.90973E+03-1.58214E+06-9.46641E+03 3.95664E+04
 -1       241-6.25408E+05 5.06169E+05-4.07319E+04-1.22335E+06 5.44108E+03 5.96102E+04
 -1       242-1.09438E+06 1.44378E+05-2.77266E+03-1.94763E+06-5.31737E+04 1.08274E+05
 -1       243-5.58416E+05 3.99993E+05-5.09967E+04-1.62287E+05-7.37406E+03 6.27619E+04
 -1       244-6.00160E+05 2.40238E+05-2.02254E+04-8.59358E+05 6.60534E+04 7.34038E+04
 -1       245-1.27217E+06 3.29813E+04-1.28548E+04-1.28010E+06 5.22295E+03 8.47856E+04
 -1       246-1.08133E+06 1.14264E+05-2.49182E+04-7.39902E+05-3.63233E+04 4.80651E+04
 -1       247-2.36739E+06 1.50769E+05 2.19324E+03-1.74147E+06 3.88958E+04 1.06732E+05
 -1       248 6.37532E+06 1.71881E+05 1.13289E+03-1.83198E+06 4.32700E+04 2.22658E+05
 -1       249 5.16255E+06-5.06699E+04 8.36252E+03-2.12438E+06-9.78249E+04 4.07531E+04
 -1       250 2.40086E+06 1.17417E+05-3.73220E+03-3.15906E+06-3.42346E+04 2.06847E+05
 -1       251 3.46583E+06-7.00771E+04-8.92916E+03-2.10315E+06 1.61638E+04 1.17650E+05
 -1       252 7.02339E+06 2.74998E+05 4.17564E+04-1.74056E+06 3.03346E+04 2.46500E+05
 -1       253 6.71565E+06 1.18310E+05-7.29027E+04-2.47050E+06 3.41765E+04 1.69318E+05
 -1       254 2.78548E+06 3.23796E+05-2.04976E+04-3.17898E+06 2.65665E+04 1.15236E+05
 -1       255 3.98301E+06 3.81310E+05-2.14963E+04-3.02357E+06 6.75073E+03 2.45627E+05
 -1       256 3.79741E+05 1.79703E+05-9.15514E+03-3.31452E+06-7.64338E+03 1.53864E+05
 -1       257 5.08634E+06 2.60916E+05 3.67172E+04-2.13074E+06 1.29483E+05 3.30466E+05
 -1       258-1.38735E+06 1.12046E+05 2.09480E+03-1.21196E+06 1.54382E+04 1.71386E+05
 -1       259-1.15474E+06-1.20953E+05-4.57914E+04-3.48581E+06-7.90802E+04 9.07471E+04
 -1       260 7.85202E+06 2.69733E+05 5.86342E+04-1.98616E+06-2.29049E+04 2.28363E+05
 -1       261 5.01914E+06 3.25935E+05 1.90926E+04-2.93217E+06-1.13435E+04 7.98036E+04
 -1       262 6.03436E+05-6.11234E+05-2.38609E+04-7.49903E+05-1.51732E+04-1.20525E+04
 -1       263-1.19182E+06 1.84936E+05-8.64816E+03-7.90526E+05-7.44532E+03 7.16861E+04
 -1       264-4.84423E+06-4.72519E+05-5.39617E+04-2.85434E+06 8.20313E+04-4.95800E+04
 -1       265-6.14662E+06-1.93419E+05 5.54005E+03-1.81818E+06-6.34801E+04 2.20056E+05
 -1       266-7.50530E+06-3.52810E+05-3.57991E+04-1.94143E+06 2.55155E+04 3.37206E+05
 -1       267 1.17394E+06-1.63186E+05 2.17889E+04-7.13855E+05 4.12036E+04 8.14884E+04
 -1       268 7.36584E+06 2.82375E+05 3.26520E+04-1.96299E+06-7.28611E+04 9.99579E+04
 -1       269-5.75673E+05 4.91176E+05 6.11573E+03-2.47308E+05-3.25825E+04 1.02151E+05
 -1       270 4.78460E+05-3.29197E+05-2.66418E+04-9.85136E+05-3.79855E+04-1.63619E+03
 -1       271 2.18938E+06 3.99694E+05-1.66491E+04-3.28545E+06-3.08686E+04 1.04064E+05
 -1       272 3.19339E+06 1.04780E+05-1.35101E+04-2.97588E+06 1.90760E+03 1.59591E+05
 -1       273-3.55832E+06 1.04998E+05-1.64088E+04-2.37481E+06 3.49985E+04 1.96953E+05
 -1       274-2.52392E+06 1.47574E+05-9.11636E+03-1.13319E+06-8.85313E+03 1.63523E+05
 -1       275-5.89098E+05 2.92314E+05 2.16448E+04-6.15238E+05 2.06258E+04 5.11453E+04
 -1       276-4.56490E+06-1.99841E+05 9.70838E+03-2.46690E+06 8.84776E+04 4.52073E+05
 -1       277 1.26617E+06-8.79744E+04 2.92049E+04-1.89863E+06-4.73434E+04 1.18529E+05
 -1       278 5.27983E+06 5.97995E+04-1.83096E+04-1.83391E+06-2.26674E+04 2.15888E+05
 -1       279-2.31069E+06-1.77089E+05-4.43458E+02-3.35222E+06 4.81551E+03 2.69857E+04
 -1       280 4.67334E+06 2.66554E+05 8.85026E+03-2.51898E+06-2.53202E+04 3.38186E+05
 -3
    1PSTEP                         6           1           1          
    1PGM                1.000000E+00                                  
    1PGK                1.225495E+11                                  
    1PHID                         -1                                  
    1PSUBC                         0                                  
    1PMODE                         2                                  
  100CL  102 5.57155E+04         280                     2    2MODAL      1
 -4  TOSTRAIN    6    1
 -5  EXX         1    4    1    1
 -5  EYY         1    4    2    2
 -5  EZZ         1    4    3    3
 -5  EXY         1    4    1    2
 -5  EYZ         1    4    2    3
 -5  EZX         1    4    3    1
 -1         1-6.60636E+01 8.81643E-01 1.91349E-02-9.65990E+00 9.18106E-01-8.09425E-01
 -1         2-7.55254E+01 9.46445E-01 2.69840E-01-9.82140E+00-9.67191E-01 2.09561E+00
 -1         3 7.58822E+01-1.03468E+00-2.95444E-01-9.49982E+00 9.46591E-01 2.12064E+00
 -1         4 6.63725E+01-8.72755E-01-1.27005E-01-9.11111E+00-1.00709E+00-9.43944E-01
 -1         5 1.36042E+00 2.25334E+00 5.15639E-04 1.77314E+00-1.47297E-01-1.26868E-01
 -1         6 1.73159E+00 2.21330E+00 2.98805E-01 1.82862E+00 5.00534E-02-2.27447E-01
 -1         7-1.58311E+00-2.28847E+00-4.71200E-01 1.70547E+00-2.49274E-01-2.00948E-01
 -1         8-1.49804E+00-2.12358E+00-1.80255E-01 1.68324E+00 1.07212E-01 9.68954E-02
 -1         9-7.33226E+01-4.68477E-01 1.00727E-02-1.29516E+01-5.56784E-03 1.56122E+00
 -1        10-7.88878E+01 6.73375E-06 8.33120E-07-1.27776E+01 1.42745E-06 1.23287E+00
 -1        11-7.98453E+01 5.96743E-06 2.58085E-06-1.27531E+01-2.61039E-06 6.39592E-01
 -1        12 4.30512E+00 1.58575E-01 9.21169E-02-1.70461E+01 3.55065E-02 7.25094E-01
 -1        13-2.26821E+01 9.44354E-06-4.13462E-07-1.52123E+01 1.09318E-06 9.25997E-01
 -1        14 3.33552E+01-9.54235E-06-2.65710E-07-1.47185E+01 4.79046E-07 8.12323E-01
 -1        15 6.88012E+01-2.34365E-01-3.73993E-01-1.03996E+01-2.96412E-02 1.36911E+00
 -1        16 7.94852E+01-6.25148E-06-3.01748E-06-1.24775E+01 2.65031E-06 7.38689E-01
 -1        17 7.79555E+01-3.93095E-06-2.68028E-06-1.20735E+01-7.55339E-07 8.52537E-01
 -1        18-4.20489E+00 3.80092E-01-3.46250E-02-1.69244E+01-4.52356E-03 5.31203E-01
 -1        19-3.31586E+01 9.65197E-06 5.61929E-07-1.50595E+01-9.79936E-07 6.48504E-01
 -1        20 2.28775E+01-7.92640E-06 2.42264E-07-1.45819E+01-2.44788E-07 8.10536E-01
 -1        21 9.65145E-01 2.25709E+00-2.05638E-01 2.13546E+00 5.20174E-02 1.01174E-01
 -1        22 1.39234E+00 1.79574E+00-3.52318E-02 1.40347E+00-2.94778E-02-1.30374E-01
 -1        23 1.52761E+00 1.67568E+00 1.40662E-01 1.24627E+00-7.44539E-03 6.70380E-02
 -1        24 5.39134E-01 7.90828E-02-1.52863E-01-2.67527E+00 2.50275E-01-3.75807E-01
 -1        25 8.51681E-01 3.26845E+00-2.18328E-01-4.10394E-01-4.85643E-02-1.78218E-01
 -1        26-1.12887E+00-3.31281E+00-3.87869E-03-6.24881E-01 6.12532E-02-1.61500E-01
 -1        27-8.58906E-01-1.59932E+00 6.81720E-01 1.12603E+00 6.29639E-02 1.20552E-01
 -1        28-1.26574E+00-1.46840E+00-1.62356E-01 9.10704E-01 2.56931E-02 4.01280E-02
 -1        29-1.00352E+00-1.50282E+00 3.57291E-01 9.37204E-01-3.34547E-02 1.70220E-02
 -1        30-1.32571E-01-2.97339E-02 1.06681E-01-2.41717E+00-2.05559E-01-8.47908E-02
 -1        31 7.87900E-01 3.85206E+00-4.59837E-02-3.36122E-01-5.90181E-02-1.31916E-02
 -1        32-7.41721E-01-3.73024E+00 1.58251E-01-4.32942E-01 2.01509E-01-1.87693E-01
 -1        33-2.08556E+01 4.29452E-01 1.53729E-02-3.16122E+00 3.87341E-02 5.89879E-02
 -1        34-4.51752E+01 8.78359E-01-4.09012E-01-3.45789E+00 4.74763E-02 5.51657E-01
 -1        35-6.99313E+00 6.67117E-01-1.66815E-01-5.42777E-01 7.83215E-02 1.28614E-01
 -1        36-2.36973E+01 3.31369E-02-4.43741E-02-2.29582E+00 2.43693E-01 1.54858E-01
 -1        37-5.18731E+01 8.47268E-01-3.04079E-01-3.45078E+00-1.18722E-01 3.64373E-01
 -1        38-7.50017E+00 6.94264E-01-1.49193E-01-5.12649E-01-2.77080E-02 1.39137E-01
 -1        39 2.26600E+01-8.95640E-02 4.10829E-02-2.02319E+00-4.29564E-03 1.67009E-01
 -1        40 5.17087E+01-5.39453E-01 1.47000E-01-3.59044E+00 4.50120E-01 1.02410E+00
 -1        41 7.64439E+00-6.44893E-01 7.61715E-02-4.55381E-01 1.19371E-01-1.46170E-02
 -1        42 2.09912E+01-1.91223E-01 3.92883E-02-2.94058E+00 3.47091E-01-9.14987E-02
 -1        43 4.50080E+01-7.06957E-01 2.66539E-01-3.16351E+00-3.32593E-01 1.88635E-01
 -1        44 6.89170E+00-7.68763E-01 1.14369E-01-6.60892E-01-1.31434E-01 1.73620E-01
 -1        45-9.02025E-01 3.92557E-01-5.73953E-02-1.75749E+01 2.35470E-01 1.53431E+00
 -1        46-2.51415E+01-1.68159E+00-1.67390E-01-1.47055E+01-1.35332E-01 8.07790E-01
 -1        47-2.32092E+01-2.53933E+00 8.28761E-02-1.58274E+01-5.68024E-01 2.15089E-01
 -1        48 2.27651E+01 1.31276E+00-5.91145E-02-1.52041E+01 2.08557E-01 1.17292E+00
 -1        49 2.69074E+01 3.65918E-01 1.10982E-01-1.43812E+01 2.38457E-01 8.14273E-01
 -1        50-5.05117E+01-4.03497E-01-9.80902E-03-1.26933E+01-2.06662E-01 1.59716E+00
 -1        51-5.18132E+01 5.74625E-06 1.09615E-06-1.35374E+01-1.75745E-06 1.11262E+00
 -1        52-3.34617E+01 1.13566E-05 1.81169E-02-1.52303E+01 4.94682E-01 1.31826E+00
 -1        53-9.78103E+00-9.35287E-01-3.11666E-02-1.59812E+01-4.83230E-01 8.15736E-01
 -1        54-5.03019E+01-1.15462E+00-3.47385E-02-1.41847E+01-5.94687E-01 1.71471E+00
 -1        55-4.41198E+01-4.35311E-01 7.77486E-02-1.27811E+01 1.78788E-01 1.58255E-01
 -1        56-1.23831E+01-5.60078E-01-2.75402E-03-1.71674E+01 2.81419E-01 7.08379E-01
 -1        57-8.25191E+00-6.91849E-01 9.84875E-02-1.67702E+01-2.96682E-01 1.06479E+00
 -1        58 1.40857E+00 6.47027E-01-7.90676E-07-1.70266E+01-2.01493E-02 1.07443E+00
 -1        59 1.59545E+01-9.20173E-06-2.56864E-07-1.55891E+01 3.04317E-07 9.24844E-01
 -1        60 5.03611E+01 3.51497E-01-1.92110E-02-1.25234E+01 1.66152E-01 1.51529E+00
 -1        61 9.89186E+00 3.45654E-01-1.42823E-02-1.55398E+01 1.65691E-01 3.53603E-01
 -1        62-1.37931E+01-3.95101E-01-5.06721E-02-1.63900E+01 2.22888E-01 5.28622E-01
 -1        63-1.48229E+00-5.09243E-06 7.22104E-07-1.67696E+01-8.28999E-07 9.67005E-01
 -1        64 4.32063E+01 1.01237E+00-1.60049E-01-1.29273E+01 4.26163E-01 1.97735E+00
 -1        65 4.31798E+01 5.55666E-01-1.07757E-01-1.22860E+01-2.23960E-01 2.56881E-01
 -1        66 1.16156E+01-9.21762E-06 9.81863E-07-1.62646E+01-9.66351E-07 1.01606E+00
 -1        67 2.80419E+01-1.00164E-05 7.65494E-02-1.51204E+01-4.32246E-01 5.01260E-01
 -1        68 1.00470E+01 3.13673E-01-4.73819E-02-1.58525E+01 1.33150E-01 7.66118E-01
 -1        69 4.99786E+01-6.19574E-06-9.10497E-07-1.33049E+01 1.56895E-06 1.24178E+00
 -1        70-1.15863E+00-2.48107E-01-7.74415E-02-3.76959E+00 2.38986E-01 3.11697E-01
 -1        71-9.12263E-02 5.15846E+00 7.93870E-02-6.15771E-01-5.97262E-02 7.91873E-02
 -1        72 1.00393E+00-4.62939E+00 3.56795E-01-4.26469E-01 1.81061E-01-8.64695E-02
 -1        73 4.86440E-02-4.73953E+00-2.92432E-01-4.86193E-01-1.76440E-01 2.26072E-01
 -1        74-2.54585E-01 4.97923E+00-4.44884E-01-7.28324E-01 5.56403E-02 1.71334E-01
 -1        75 6.73292E-01-3.73639E+00 2.55583E-01-1.47288E+00 1.24567E-01 9.09518E-02
 -1        76-2.22934E-01-3.81889E+00 8.98938E-02 3.30767E-01 4.58917E-02-1.96940E-01
 -1        77-1.98059E-01-3.18075E+00 7.12192E-01-7.08380E-02 4.87526E-02-6.72872E-02
 -1        78-1.37482E-01 9.26466E-01 8.60302E-02-2.52645E+00 3.75497E-01 2.36355E-01
 -1        79 3.71867E-02-3.21007E+00 1.45389E-01-1.92006E+00 8.15790E-01 9.91896E-02
 -1        80-1.66167E+00-2.39623E+00 2.11921E-01-1.56801E+00 8.75033E-02 1.22529E-01
 -1        81-8.32811E-01-3.04256E+00-1.89500E-01-1.46685E+00 1.44449E-01-1.22529E-01
 -1        82-2.95805E-01-3.99203E+00-4.97282E-01 4.72198E-01-6.73744E-02 1.16711E-01
 -1        83-1.10944E-01-3.23955E+00 1.93860E-01 2.97992E-02-4.68724E-03 2.48271E-01
 -1        84-5.56369E-01-2.98645E+00-3.64201E-01-1.34013E+00-6.37085E-01 1.08363E-01
 -1        85 6.03304E-02-7.64865E-01-3.43223E-01-2.44621E+00-7.01889E-02-1.47946E-01
 -1        86 8.54412E-01 3.11639E+00-3.83552E-01-1.76017E+00 3.71413E-01-5.40776E-02
 -1        87 8.60522E-02 4.09334E+00-2.03783E-01 2.87044E-01 1.26785E-01 2.12073E-02
 -1        88-1.01209E-01 3.86681E+00-2.23755E-01 7.05962E-01-1.53437E-01 1.50261E-01
 -1        89-2.55288E-02 3.09111E+00-3.74077E-01-2.52123E+00-5.75817E-01 9.70552E-02
 -1        90 1.30266E-02 2.93422E+00 4.53412E-02-1.29586E+00-1.81118E-02-4.92314E-02
 -1        91 3.36264E-01 3.71522E+00-2.29590E-02-1.28655E+00-1.39442E-01-4.98373E-02
 -1        92 3.39750E-01 4.09471E+00 3.03537E-01 4.73276E-01-1.61981E-01 1.15524E-02
 -1        93 5.54849E-01 2.94240E+00 1.22551E-01-1.70470E+00 6.19336E-01 9.28415E-02
 -1        94 2.92602E-01 4.16730E+00-1.35927E-01 8.13002E-02 1.63685E-02 1.41515E-01
 -1        95-2.55592E+01-2.16620E-01-6.45255E-02-4.09634E+00-6.24173E-02 6.30852E-01
 -1        96-6.33967E+00 2.77754E-01 8.06629E-04-1.15678E+00-9.16043E-02 5.15527E-01
 -1        97-5.45410E+00-3.15770E-01-1.60584E-01-5.48154E-01-4.64149E-02 3.66477E-01
 -1        98-4.27926E+01-4.94429E-01 7.62188E-03-3.30125E+00-5.26273E-02 1.41401E+00
 -1        99-4.74212E+01-1.10872E+00-7.06159E-02-5.62442E+00 3.95547E-01 1.39990E+00
 -1       100-5.69529E+01-3.14055E-01-3.56789E-02-6.15630E+00 2.62901E-01-2.40380E-01
 -1       101-5.85979E+01-1.40224E+00-1.58309E-01-6.57731E+00-3.50004E-01 2.38112E+00
 -1       102-4.84305E+01-1.80258E+00-1.84696E-01-7.64314E+00 1.80500E-01 1.08428E+00
 -1       103-3.59972E+01 4.37241E-01-9.41181E-02-1.90832E+00 9.53005E-01 1.86123E+00
 -1       104-3.72658E+01-1.11589E+00-4.77068E-02-5.80216E+00-3.65839E-01 7.50718E-01
 -1       105-6.08961E+01-1.03597E+00-1.86318E-01-1.01806E+01 3.81433E-01 5.53026E-01
 -1       106-6.27212E+01-3.06930E-01-1.28520E-01-6.41187E+00-1.89013E-01 1.10957E+00
 -1       107-1.32924E+01 5.05798E-01-2.23117E-02-2.50378E+00 4.33323E-02 6.38311E-01
 -1       108-1.32393E+01 3.50076E-01 1.80544E-02-1.37032E+00-1.43601E-01 2.76362E-01
 -1       109-2.27428E+01 2.50501E-01 3.39421E-02-3.35647E+00-1.52311E-01 5.23895E-01
 -1       110-7.69482E+00 4.55053E-01-1.29584E-01-8.16672E-01-9.91403E-02 8.50293E-01
 -1       111-2.53272E+00 1.21707E+00-1.27917E-01 2.50578E-01-1.46748E-01 2.23234E-01
 -1       112-1.74429E+00 3.05032E-01 2.06841E-01 4.17341E-01 5.47060E-02 2.07887E-01
 -1       113-1.26848E+01 9.44073E-02-9.71064E-02-2.12168E+00-1.83500E-01 1.03098E+00
 -1       114-1.82998E+00 4.69417E-01-1.52443E-01 9.23073E-01 6.32319E-02 3.82528E-01
 -1       115-2.27292E+01 4.37954E-01 1.21639E-01-3.48402E+00 5.20642E-02 7.21962E-01
 -1       116-1.22456E+01 4.04712E-01-6.26488E-02-1.96273E+00 2.35522E-01 1.56697E-01
 -1       117-1.36318E+00 2.24046E-01-3.59075E-02 3.68124E-01-1.08948E-01-1.26016E-01
 -1       118-3.25459E+01-4.07287E-02 1.08999E-01-3.46761E+00-2.53771E-01 5.87295E-01
 -1       119-3.68821E+01-5.79323E-01-3.35086E-02-3.20546E+00 5.13631E-01 1.18135E-01
 -1       120 2.21355E+01-3.34235E-01 3.44559E-02-4.36558E+00-2.00239E-01 8.58315E-01
 -1       121 7.92808E+00-6.76060E-01 2.82639E-02-1.19024E+00 1.77081E-01 7.84208E-01
 -1       122 4.91465E+01 1.61658E+00 4.49150E-01-5.47147E+00-1.83558E-01 8.71097E-01
 -1       123 7.75470E+00-8.67795E-01 1.02507E-01-5.94513E-01-1.74705E-01 3.30191E-01
 -1       124 4.63774E+01 2.97229E-01 2.23108E-01-2.94564E+00-3.34449E-02 1.02791E+00
 -1       125 1.29856E+01-9.27251E-01 1.89848E-01-1.46082E+00 1.37931E-03 4.39007E-01
 -1       126 1.39216E+01-8.65384E-01-1.41419E-01-1.67798E+00 6.20263E-02 5.80486E-01
 -1       127 1.96431E+01-4.28636E-02 9.85476E-02-2.52682E+00-1.39365E-03 7.05672E-01
 -1       128 1.86579E+00-3.74173E-01-8.75289E-02 3.72248E-01 8.14990E-02 4.45698E-02
 -1       129 3.21217E+01 6.68357E-01 3.85054E-02-2.88529E+00 5.45444E-01 1.47073E-01
 -1       130 3.28494E+01-4.85620E-02 1.63572E-01-3.80465E+00-6.05198E-01 1.60518E+00
 -1       131 5.86899E+01 3.25052E-02 2.21629E-01-5.24735E+00-3.51748E-01-1.79899E-01
 -1       132 1.38975E+01-8.12423E-01-3.90594E-03-1.28327E+00 2.47210E-01 1.30447E-01
 -1       133 2.46230E+01-6.34341E-01-1.53116E-01-2.85552E+00 5.55866E-02 5.64744E-01
 -1       134 1.40313E+01-1.04924E+00 9.24671E-03-3.15607E+00-1.64504E-01 7.63951E-01
 -1       135 1.99262E+00-3.77514E-01-2.74173E-01 3.72452E-01-1.06075E-01 2.75181E-01
 -1       136 2.50314E+00-5.65505E-01 2.47111E-01-2.98168E-01 4.09025E-01 2.66243E-01
 -1       137 8.23007E+00-1.05290E+00 2.30876E-01-1.61692E+00-9.02836E-02 6.80241E-01
 -1       138 6.00563E+01 4.23614E-01 1.94964E-01-8.81333E+00-5.79182E-01 3.55290E-02
 -1       139 4.81016E+01-6.10576E-01-2.82864E-01-4.98550E+00-1.51433E-02 2.22586E+00
 -1       140 3.49570E+01 9.73453E-01 1.03664E-01-4.70926E+00 3.04351E-01 1.13207E+00
 -1       141 6.37212E+01 2.99007E-01 3.41855E-01-5.80137E+00 2.11415E-01 9.72291E-01
 -1       142 3.49943E+01 1.48474E+00 4.25697E-01-1.99218E+00-6.47797E-01-1.90940E-01
 -1       143 2.37912E+00-7.34137E-01 3.05182E-01-1.51484E-01-3.83907E-01 3.17554E-01
 -1       144 5.96837E+01 6.04011E-01-1.69888E-01-5.01571E+00 4.96176E-01 2.68709E+00
 -1       145 3.23694E+00-2.36025E-01 4.21733E-02-1.81268E+01 2.08747E-01 1.78901E-01
 -1       146 2.40809E+01 1.75458E+00-5.76038E-02-1.42612E+01-2.78658E-01 3.36006E-01
 -1       147 6.02717E+00-1.40667E+00 9.88469E-02-7.10907E+00-2.27284E-02-3.95678E-02
 -1       148-5.37437E+00 1.35166E+00-4.08091E-02-6.70169E+00-1.33698E-01 1.77209E-01
 -1       149-1.71483E+01-1.83520E+00 5.82326E-02-1.38282E+01-2.33858E-01 1.14074E+00
 -1       150-5.74632E+00-1.39334E+00 1.67611E-01-1.56045E+01 1.20736E-02 5.64832E-01
 -1       151-3.95389E+01-6.82790E-01 8.79484E-02-1.13095E+01 3.41703E-01-3.84703E-03
 -1       152 3.19763E+00 1.17827E-01 1.94491E-01-1.71540E+01-3.41519E-02-7.33739E-02
 -1       153 1.31394E+01 1.71080E+00 4.63722E-02-1.53682E+01-2.76433E-02 6.78722E-01
 -1       154 1.16655E+01 3.33038E-02 4.75663E-02-1.58557E+01 1.77226E-02 5.69762E-01
 -1       155-5.54350E+00 9.78006E-02-1.30279E-01-1.64129E+01 1.65830E-01 3.89243E-01
 -1       156 4.75192E+01 4.96369E-01-2.23348E-01-1.12384E+01 3.79359E-01 9.60534E-01
 -1       157-2.10730E+01-1.03850E+00 2.14244E-01-8.06625E+00-8.88544E-01 6.32555E-01
 -1       158 2.51283E+01 9.05790E-01 3.58851E-02-7.73451E+00-4.66356E-01 1.86281E-03
 -1       159 1.45728E+01-6.15491E-01-5.63707E-02-1.12575E+01 3.45544E-01 7.39300E-01
 -1       160 1.29979E+01-1.09441E+00 4.90388E-02-4.92506E+00 3.98151E-01 2.10020E-01
 -1       161 5.57760E+00-3.49152E-01 7.13330E-02-1.24683E+01 2.06209E-01 4.33767E-01
 -1       162 2.40110E+00-1.75540E+00-1.14218E-01-2.42309E+00-2.66845E-01-2.91457E-01
 -1       163 2.68207E+00-1.48668E+00-2.50573E-02-4.79613E+00 4.56663E-02-1.19043E-01
 -1       164 6.00261E-01-1.02990E-01 2.25432E-02-1.02101E+01-8.70726E-02-7.22390E-03
 -1       165-1.99079E+00 1.71774E+00-7.35254E-02-4.88292E+00 1.23093E-01-1.89760E-01
 -1       166-3.77179E+00-1.18922E-02 4.23244E-03-1.25706E+01-4.22314E-02 7.26132E-02
 -1       167-1.15566E+01 1.10241E+00-9.76470E-02-5.11090E+00 2.90773E-01-3.16290E-02
 -1       168-9.93800E+00 4.66531E-01-5.75032E-02-1.14333E+01 1.33058E-01-2.76414E-01
 -1       169-2.15892E+00 1.78134E+00 3.68764E-02-2.20969E+00-2.34133E-01 2.01118E-01
 -1       170 2.68423E-01 4.11423E-02 1.62772E-01-1.83904E+01-2.00043E-01 2.60188E-01
 -1       171 4.57137E+00-9.43813E-01 4.54134E-02-6.66296E+00 4.54979E-02 4.13450E-01
 -1       172-5.49360E+00 1.39603E+00-6.87690E-02-6.83977E+00-1.50012E-01 2.00912E-01
 -1       173 1.68703E+01 1.61342E+00-8.90152E-02-1.45941E+01 2.26107E-02 7.58434E-01
 -1       174-2.32570E+01-1.84157E+00-5.55993E-02-1.37859E+01 2.09474E-01-8.37608E-01
 -1       175 2.11727E+01 7.92828E-01-2.82349E-02-8.63097E+00 6.86871E-01 3.62006E-01
 -1       176 3.94908E+01 5.32424E-01-1.55068E-01-1.14540E+01-5.27155E-01-1.41999E-01
 -1       177 6.42495E+00-3.42629E-01 8.89448E-02-1.60571E+01-5.88770E-02 2.53309E-01
 -1       178 1.21070E+01-7.77305E-01-5.21734E-02-1.13259E+01-1.02306E-01-8.65770E-02
 -1       179 1.09588E+01-1.03102E+00 1.41244E-01-5.23405E+00-1.79529E-01-1.26549E-01
 -1       180 1.69302E+00-1.60641E+00-7.38940E-02-2.29709E+00 1.06403E-01 3.83007E-01
 -1       181 3.66270E+00 4.42144E-01 9.83517E-02-1.26371E+01-6.07395E-02 1.25451E-01
 -1       182-1.31874E+01 9.59838E-01 5.49575E-02-4.64852E+00-3.56715E-01 7.37472E-02
 -1       183-4.61996E+00-6.83058E-02 4.45291E-02-1.25641E+01-1.98209E-01 2.84257E-01
 -1       184-1.24474E+01 4.72955E-01 1.26943E-01-1.15847E+01-2.55223E-02 7.96048E-01
 -1       185-2.18158E+00 1.66088E+00 7.06752E-02-2.12692E+00 1.68263E-01-2.27194E-01
 -1       186-2.49664E+00 1.81417E+00-1.28228E-02-4.43229E+00-1.76690E-01 2.00923E-01
 -1       187-2.74169E-01 5.94902E-02 1.55720E-01-9.97658E+00-5.15407E-01-1.95692E-01
 -1       188 5.69872E+00 1.62365E+00-5.16772E-02-1.56462E+01-4.58704E-02 2.08036E-01
 -1       189-3.29992E+00 7.45522E-03 1.34938E-01-1.72285E+01-1.71870E-01 7.72504E-01
 -1       190-2.53561E+01-1.15879E+00-2.82057E-02-7.88791E+00 9.27947E-01-1.94185E-01
 -1       191-1.04567E+01 2.38589E-01 7.91363E-02-1.65215E+01-4.45228E-01-5.62743E-03
 -1       192-4.75957E+01-6.46348E-01 1.33328E-01-1.14122E+01-3.52412E-01 7.98738E-01
 -1       193-1.35598E+01-1.55367E+00-1.38828E-01-1.53900E+01 9.25318E-02 1.57359E-01
 -1       194 1.76117E+00-1.81293E+00 1.59611E-01-4.77640E+00-3.33918E-01 3.54368E-02
 -1       195 7.76866E+00 2.60826E-01-4.86431E-02-1.78486E+01-1.25185E-02 1.12462E+00
 -1       196-4.50398E+00 5.66281E-01 4.52388E-03-1.40099E+01-4.26242E-02 1.05130E+00
 -1       197-3.34009E+01-2.36605E+00 1.07054E-02-9.15765E+00-5.68286E-01 6.91868E-01
 -1       198-2.79799E+01-1.92914E+00-2.34112E-01-9.43617E+00 3.53791E-01-4.04640E-01
 -1       199-2.13301E+01 1.18105E+00 1.00477E-01-9.63339E+00 3.82892E-01 1.67218E+00
 -1       200-1.47234E+01 8.56443E-01 4.97945E-02-8.89574E+00-3.58561E-01 9.41189E-01
 -1       201-1.23266E+01-1.04304E+00 7.87463E-02-1.57239E+01-6.13615E-02 2.06341E-01
 -1       202 8.67716E+00-7.05027E-01 4.27159E-02-9.52458E+00 1.66453E-01 5.85385E-01
 -1       203 7.12137E+00-1.13446E+00 9.20887E-02-4.11213E+00 6.68847E-03 4.20074E-01
 -1       204 4.57348E+00-3.78716E-01-7.46908E-02-8.87598E+00-9.44295E-02 7.01817E-01
 -1       205 1.76109E+00 8.01649E-02 4.92564E-02-1.15358E+01-1.88514E-02 1.81637E-01
 -1       206-9.05989E-01-2.85791E-01 3.85017E-02-1.67297E+01 2.45460E-01 3.67780E-01
 -1       207 2.74872E+00-1.45887E+00-1.39388E-01-2.73384E+00 2.53193E-01 7.32576E-01
 -1       208 2.83818E+00-2.24069E+00-9.58891E-02-1.19784E+00 1.64546E-01 7.04005E-01
 -1       209 1.91547E+00-1.13205E+00 1.87898E-01-9.00195E+00-1.89000E-01 3.43700E-01
 -1       210 2.87087E+00-2.82249E+00 1.41217E-01-3.42323E+00 1.98676E-02 3.04330E-01
 -1       211-2.52989E+00 1.97331E+00-2.24942E-02-5.28119E+00 7.35721E-02 3.16982E-01
 -1       212-2.83273E+00 3.20974E+00 6.02419E-04-3.64406E+00-1.40619E-01 5.01699E-02
 -1       213-2.15551E+01 1.56654E-01 9.33780E-02-1.26226E+01 5.29933E-02 8.48305E-01
 -1       214-3.51700E+01-1.20261E+00-1.62579E-01-9.14378E+00 4.05988E-01-4.08044E-01
 -1       215-1.93361E+01-2.45546E+00 2.72754E-02-1.44918E+01-5.09873E-01 1.49664E+00
 -1       216-8.03072E+00-9.08080E-01 1.29037E-01-1.69896E+01-4.71065E-01 4.30360E-01
 -1       217 2.80975E+00-2.06880E+00 5.73703E-02-3.03635E+00-1.53252E-01-1.81664E-01
 -1       218 3.42727E+00-2.36045E+00 2.20064E-01-8.22206E-01-1.95911E-01-2.11812E-01
 -1       219 7.47855E+00-1.46526E+00 3.54929E-03-5.02186E+00 3.47423E-01 2.33263E-01
 -1       220 8.36265E+00-3.75887E-01 1.48674E-02-1.12361E+01-3.48996E-01 5.25804E-01
 -1       221-2.21827E+00 9.14253E-01-1.16307E-01-8.57764E+00 1.76449E-01 1.00950E+00
 -1       222-6.95131E-01 1.29880E-01 1.21400E-01-1.04319E+01-1.83660E-01 2.85830E-01
 -1       223-5.44887E+00 9.27329E-01-8.73357E-02-9.23929E+00 7.63008E-02 5.95390E-01
 -1       224-3.39065E+00-1.48371E-01 9.34611E-02-1.49516E+01 6.75535E-02 5.01955E-01
 -1       225-1.26938E+01 9.18139E-02 5.74506E-02-1.17130E+01 8.87141E-02 8.49785E-01
 -1       226-1.74696E+01-1.73694E-01 1.08997E-02-1.37815E+01 1.90925E-01 1.45432E+00
 -1       227-1.13337E+01-5.36674E-02 8.80486E-02-1.32622E+01-2.44724E-01 4.24437E-01
 -1       228 3.83269E+00-7.40680E-01 9.47316E-02-1.85384E+01 1.34542E-01 4.79089E-01
 -1       229 8.33101E-01 3.78762E-01 7.11505E-02-1.67555E+01-8.60378E-02 5.83963E-01
 -1       230-3.13452E+00-5.14472E-01-7.46727E-02-1.69608E+01 3.32739E-05 2.05998E+00
 -1       231 1.12487E+01-4.81256E-01 1.03174E-01-9.09807E+00 1.14037E-01 1.33101E+00
 -1       232 2.37562E+00-6.29509E-01 2.20164E-02-1.17729E+01-1.76999E-02 1.30069E+00
 -1       233 1.53369E+01 1.29765E-01 1.12555E-01-1.07817E+01-2.53342E-01 8.31946E-01
 -1       234-1.60933E+01-1.41420E+00-4.88831E-02-1.15472E+01 2.46725E-01 8.94764E-01
 -1       235 1.40380E+01-5.37203E-01-6.04779E-02-1.15167E+01 5.96948E-02 9.02969E-01
 -1       236 4.58598E+00-5.79879E-01 2.66416E-03-1.68360E+01 6.82389E-02 6.64530E-01
 -1       237 4.04830E+00 8.62380E-01-1.27009E-01-1.75029E+01 2.89924E-01 1.68006E+00
 -1       238 5.52705E-01-7.87224E-01 8.36658E-02-1.81295E+01-4.95950E-01 1.87967E+00
 -1       239-2.72830E+00 3.02518E+00-2.19372E-01-3.72260E+00 7.01921E-02 3.18095E-01
 -1       240-1.59039E+00 5.78585E-01-4.45486E-02-7.91072E+00-4.73320E-02 1.97832E-01
 -1       241-3.12704E+00 2.53084E+00-2.03660E-01-6.11674E+00 2.72054E-02 2.98051E-01
 -1       242-5.47190E+00 7.21888E-01-1.38633E-02-9.73813E+00-2.65869E-01 5.41369E-01
 -1       243-2.79208E+00 1.99997E+00-2.54984E-01-8.11435E-01-3.68703E-02 3.13810E-01
 -1       244-3.00080E+00 1.20119E+00-1.01127E-01-4.29679E+00 3.30267E-01 3.67019E-01
 -1       245-6.36087E+00 1.64907E-01-6.42740E-02-6.40052E+00 2.61147E-02 4.23928E-01
 -1       246-5.40663E+00 5.71320E-01-1.24591E-01-3.69951E+00-1.81616E-01 2.40325E-01
 -1       247-1.18370E+01 7.53847E-01 1.09662E-02-8.70734E+00 1.94479E-01 5.33658E-01
 -1       248 3.18766E+01 8.59405E-01 5.66445E-03-9.15989E+00 2.16350E-01 1.11329E+00
 -1       249 2.58128E+01-2.53349E-01 4.18126E-02-1.06219E+01-4.89124E-01 2.03765E-01
 -1       250 1.20043E+01 5.87083E-01-1.86610E-02-1.57953E+01-1.71173E-01 1.03423E+00
 -1       251 1.73291E+01-3.50385E-01-4.46458E-02-1.05157E+01 8.08188E-02 5.88249E-01
 -1       252 3.51169E+01 1.37499E+00 2.08782E-01-8.70282E+00 1.51673E-01 1.23250E+00
 -1       253 3.35783E+01 5.91548E-01-3.64513E-01-1.23525E+01 1.70883E-01 8.46589E-01
 -1       254 1.39274E+01 1.61898E+00-1.02488E-01-1.58949E+01 1.32833E-01 5.76179E-01
 -1       255 1.99150E+01 1.90655E+00-1.07481E-01-1.51178E+01 3.37536E-02 1.22813E+00
 -1       256 1.89871E+00 8.98514E-01-4.57757E-02-1.65726E+01-3.82169E-02 7.69322E-01
 -1       257 2.54317E+01 1.30458E+00 1.83586E-01-1.06537E+01 6.47413E-01 1.65233E+00
 -1       258-6.93674E+00 5.60230E-01 1.04740E-02-6.05982E+00 7.71909E-02 8.56929E-01
 -1       259-5.77370E+00-6.04764E-01-2.28957E-01-1.74290E+01-3.95401E-01 4.53735E-01
 -1       260 3.92601E+01 1.34866E+00 2.93171E-01-9.93078E+00-1.14524E-01 1.14181E+00
 -1       261 2.50957E+01 1.62968E+00 9.54631E-02-1.46609E+01-5.67177E-02 3.99018E-01
 -1       262 3.01718E+00-3.05617E+00-1.19304E-01-3.74951E+00-7.58659E-02-6.02623E-02
 -1       263-5.95908E+00 9.24680E-01-4.32408E-02-3.95263E+00-3.72266E-02 3.58430E-01
 -1       264-2.42212E+01-2.36260E+00-2.69808E-01-1.42717E+01 4.10156E-01-2.47900E-01
 -1       265-3.07331E+01-9.67095E-01 2.77003E-02-9.09091E+00-3.17400E-01 1.10028E+00
 -1       266-3.75265E+01-1.76405E+00-1.78996E-01-9.70715E+00 1.27577E-01 1.68603E+00
 -1       267 5.86971E+00-8.15930E-01 1.08945E-01-3.56927E+00 2.06018E-01 4.07442E-01
 -1       268 3.68292E+01 1.41188E+00 1.63260E-01-9.81496E+00-3.64306E-01 4.99790E-01
 -1       269-2.87836E+00 2.45588E+00 3.05787E-02-1.23654E+00-1.62912E-01 5.10754E-01
 -1       270 2.39230E+00-1.64599E+00-1.33209E-01-4.92568E+00-1.89927E-01-8.18094E-03
 -1       271 1.09469E+01 1.99847E+00-8.32453E-02-1.64272E+01-1.54343E-01 5.20319E-01
 -1       272 1.59670E+01 5.23901E-01-6.75506E-02-1.48794E+01 9.53800E-03 7.97956E-01
 -1       273-1.77916E+01 5.24989E-01-8.20439E-02-1.18740E+01 1.74993E-01 9.84765E-01
 -1       274-1.26196E+01 7.37869E-01-4.55818E-02-5.66597E+00-4.42657E-02 8.17617E-01
 -1       275-2.94549E+00 1.46157E+00 1.08224E-01-3.07619E+00 1.03129E-01 2.55727E-01
 -1       276-2.28245E+01-9.99207E-01 4.85419E-02-1.23345E+01 4.42388E-01 2.26037E+00
 -1       277 6.33087E+00-4.39872E-01 1.46025E-01-9.49313E+00-2.36717E-01 5.92644E-01
 -1       278 2.63991E+01 2.98998E-01-9.15479E-02-9.16953E+00-1.13337E-01 1.07944E+00
 -1       279-1.15534E+01-8.85444E-01-2.21729E-03-1.67611E+01 2.40775E-02 1.34929E-01
 -1       280 2.33667E+01 1.33277E+00 4.42513E-02-1.25949E+01-1.26601E-01 1.69093E+00
 -3
    1PSTEP                         7           1           1          
    1PGM                1.000000E+00                                  
    1PGK                2.779208E+11                                  
    1PHID                         -1                                  
    1PSUBC                         0                                  
    1PMODE                         3                                  
  100CL  103 8.39036E+04         280                     2    3MODAL      1
 -4  DISP        4    1
 -5  D1          1    2    1    0
 -5  D2          1    2    2    0
 -5  D3          1    2    3    0
 -5  ALL         1    2    0    0    1ALL
 -1         1 0.00000E+00 0.00000E+00 0.00000E+00
 -1         2 0.00000E+00 0.00000E+00 0.00000E+00
 -1         3 0.00000E+00 0.00000E+00 0.00000E+00
 -1         4 0.00000E+00 0.00000E+00 0.00000E+00
 -1         5 7.17401E-01 6.41756E+02-6.40874E+02
 -1         6-3.51630E+00-6.41890E+02-6.38297E+02
 -1         7 2.98531E+00 6.39085E+02 6.42160E+02
 -1         8-2.92493E+00-6.41800E+02 6.43127E+02
 -1         9 0.00000E+00 0.00000E+00 0.00000E+00
 -1        10 0.00000E+00 0.00000E+00 0.00000E+00
 -1        11 0.00000E+00 0.00000E+00 0.00000E+00
 -1        12 0.00000E+00 0.00000E+00 0.00000E+00
 -1        13 0.00000E+00 0.00000E+00 0.00000E+00
 -1        14 0.00000E+00 0.00000E+00 0.00000E+00
 -1        15 0.00000E+00 0.00000E+00 0.00000E+00
 -1        16 0.00000E+00 0.00000E+00 0.00000E+00
 -1        17 0.00000E+00 0.00000E+00 0.00000E+00
 -1        18 0.00000E+00 0.00000E+00 0.00000E+00
 -1        19 0.00000E+00 0.00000E+00 0.00000E+00
 -1        20 0.00000E+00 0.00000E+00 0.00000E+00
 -1        21-1.09568E+00-1.26897E-01-6.18002E+02
 -1        22 1.99026E+01 3.24838E+02-6.24665E+02
 -1        23-2.00686E+01-3.23529E+02-6.23394E+02
 -1        24 1.45298E+00 6.18646E+02 6.98394E-01
 -1        25-1.89381E+01 6.25528E+02-3.23886E+02
 -1        26 1.99949E+01 6.24146E+02 3.23764E+02
 -1        27-8.20842E-01 9.47253E-01 6.14802E+02
 -1        28-1.98191E+01 3.21795E+02 6.25999E+02
 -1        29 1.99531E+01-3.21885E+02 6.26756E+02
 -1        30 4.00476E+00-6.12739E+02-2.85263E+00
 -1        31 2.06118E+01-6.25595E+02-3.21550E+02
 -1        32-2.01522E+01-6.24800E+02 3.20492E+02
 -1        33 4.47500E+00 4.34192E+02-4.36587E+02
 -1        34-1.22282E+00 2.26917E+02-2.27627E+02
 -1        35 1.44835E+00 5.74516E+02-5.73705E+02
 -1        36-2.69688E+00-4.34639E+02-4.38878E+02
 -1        37 1.75134E+00-2.29342E+02-2.29309E+02
 -1        38-3.42656E+00-5.72266E+02-5.72728E+02
 -1        39 2.38444E+00 4.38944E+02 4.35979E+02
 -1        40-1.15405E+00 2.28688E+02 2.29343E+02
 -1        41 2.92643E+00 5.73269E+02 5.73129E+02
 -1        42-4.16590E-01-4.38039E+02 4.40457E+02
 -1        43-3.72233E-01-2.27121E+02 2.27528E+02
 -1        44-2.07826E+00-5.72477E+02 5.72187E+02
 -1        45 0.00000E+00 0.00000E+00 0.00000E+00
 -1        46 0.00000E+00 0.00000E+00 0.00000E+00
 -1        47 0.00000E+00 0.00000E+00 0.00000E+00
 -1        48 0.00000E+00 0.00000E+00 0.00000E+00
 -1        49 0.00000E+00 0.00000E+00 0.00000E+00
 -1        50 0.00000E+00 0.00000E+00 0.00000E+00
 -1        51 0.00000E+00 0.00000E+00 0.00000E+00
 -1        52 0.00000E+00 0.00000E+00 0.00000E+00
 -1        53 0.00000E+00 0.00000E+00 0.00000E+00
 -1        54 0.00000E+00 0.00000E+00 0.00000E+00
 -1        55 0.00000E+00 0.00000E+00 0.00000E+00
 -1        56 0.00000E+00 0.00000E+00 0.00000E+00
 -1        57 0.00000E+00 0.00000E+00 0.00000E+00
 -1        58 0.00000E+00 0.00000E+00 0.00000E+00
 -1        59 0.00000E+00 0.00000E+00 0.00000E+00
 -1        60 0.00000E+00 0.00000E+00 0.00000E+00
 -1        61 0.00000E+00 0.00000E+00 0.00000E+00
 -1        62 0.00000E+00 0.00000E+00 0.00000E+00
 -1        63 0.00000E+00 0.00000E+00 0.00000E+00
 -1        64 0.00000E+00 0.00000E+00 0.00000E+00
 -1        65 0.00000E+00 0.00000E+00 0.00000E+00
 -1        66 0.00000E+00 0.00000E+00 0.00000E+00
 -1        67 0.00000E+00 0.00000E+00 0.00000E+00
 -1        68 0.00000E+00 0.00000E+00 0.00000E+00
 -1        69 0.00000E+00 0.00000E+00 0.00000E+00
 -1        70 1.94286E-02 5.64123E+00-6.34385E+00
 -1        71 8.36614E-01-3.15727E+02-3.14262E+02
 -1        72-1.68480E+00-3.12580E+02 3.17013E+02
 -1        73-4.30143E-01 3.14794E+02 3.15954E+02
 -1        74 1.13409E-01 3.13235E+02-3.12443E+02
 -1        75-7.15855E+00-4.61768E+02 1.58140E+02
 -1        76-1.75005E+00-4.76757E+02 4.78916E+02
 -1        77 7.54406E+00-1.59895E+02 4.64157E+02
 -1        78 2.45843E-01-3.04364E+02-3.58320E+00
 -1        79-1.36517E+00-1.52074E+02 1.54552E+02
 -1        80-7.61242E-01 2.40772E+00 3.05134E+02
 -1        81 6.96055E+00 4.62833E+02 1.61616E+02
 -1        82 8.72278E-01 4.76472E+02 4.78929E+02
 -1        83-8.61060E+00 1.61345E+02 4.64056E+02
 -1        84-8.09674E-01 1.57981E+02 1.54301E+02
 -1        85-1.18253E+00 3.07152E+02-2.81322E-01
 -1        86-5.08578E+00 4.62984E+02-1.60016E+02
 -1        87 5.01473E-01 4.78687E+02-4.77684E+02
 -1        88 5.32992E+00 1.60733E+02-4.62256E+02
 -1        89-6.25471E-02 1.55763E+02-1.55569E+02
 -1        90 1.32116E+00 4.99227E-01-3.06864E+02
 -1        91 9.52765E+00-4.63337E+02-1.61629E+02
 -1        92-8.14471E-01-4.78735E+02-4.75772E+02
 -1        93 1.29022E+00-1.54291E+02-1.57902E+02
 -1        94-6.77118E+00-1.61296E+02-4.62217E+02
 -1        95-9.20728E+00-3.09222E-01-4.31442E+02
 -1        96-2.53968E+01-2.89727E+02-5.72285E+02
 -1        97 3.40362E+01 2.89654E+02-5.71874E+02
 -1        98 5.35084E+01 1.12265E+02-2.26755E+02
 -1        99-4.21079E+01-1.10184E+02-2.29250E+02
 -1       100 4.61491E+01 7.72009E+01-1.11634E+02
 -1       101 2.42391E+01 2.55948E+01-1.17810E+02
 -1       102-2.68032E+00 5.23242E-01-2.28615E+02
 -1       103 3.11215E+01 8.42979E+01-3.33169E+02
 -1       104-3.22610E+01-8.10711E+01-3.34984E+02
 -1       105-2.23518E+01-2.55073E+01-1.18236E+02
 -1       106-4.36027E+01-7.82002E+01-1.13134E+02
 -1       107-2.12286E+01-1.32026E+02-5.09685E+02
 -1       108-3.36618E+01-3.85813E+02-5.14390E+02
 -1       109-4.80147E+01-2.16174E+02-4.33059E+02
 -1       110-8.04200E-01 5.62444E-01-5.65027E+02
 -1       111-1.49392E+01-1.54270E+02-6.04945E+02
 -1       112-2.01468E+01-4.63257E+02-6.12685E+02
 -1       113 2.42863E+01 1.28482E+02-5.08824E+02
 -1       114 1.70621E+01 1.56588E+02-6.05599E+02
 -1       115 4.58628E+01 2.17155E+02-4.30868E+02
 -1       116 3.51709E+01 3.85506E+02-5.13766E+02
 -1       117 2.11251E+01 4.64175E+02-6.14188E+02
 -1       118 4.49545E+01 2.53995E+02-3.35760E+02
 -1       119-4.21605E+01-2.52442E+02-3.38137E+02
 -1       120-1.10005E+01-4.21937E-01 4.34102E+02
 -1       121-2.68325E+01 2.90738E+02 5.71347E+02
 -1       122-4.10720E+01 1.09021E+02 2.28139E+02
 -1       123 3.04625E+01-2.90192E+02 5.70271E+02
 -1       124 5.69589E+01-1.13965E+02 2.28580E+02
 -1       125 3.06794E+01-3.87116E+02 5.13718E+02
 -1       126 1.85128E+01-1.31188E+02 5.07288E+02
 -1       127 4.46378E+01-2.19150E+02 4.32491E+02
 -1       128 1.83631E+01-4.62983E+02 6.14113E+02
 -1       129 5.02133E+01-2.55102E+02 3.36993E+02
 -1       130 3.29225E+01-8.57647E+01 3.37122E+02
 -1       131 4.72584E+01-7.71870E+01 1.11853E+02
 -1       132-3.08335E+01 3.88459E+02 5.13121E+02
 -1       133-4.84760E+01 2.19599E+02 4.33375E+02
 -1       134-2.46138E+01 1.33613E+02 5.08620E+02
 -1       135-1.72341E+01 4.62564E+02 6.14264E+02
 -1       136-1.63766E+01 1.54207E+02 6.04806E+02
 -1       137-2.84431E+00 7.01768E-01 5.64877E+02
 -1       138-2.11746E+01 2.58274E+01 1.17642E+02
 -1       139-2.56513E+00-7.76273E-01 2.30496E+02
 -1       140-3.17387E+01 8.13767E+01 3.35321E+02
 -1       141-4.39716E+01 7.75985E+01 1.13506E+02
 -1       142-4.70583E+01 2.51575E+02 3.36369E+02
 -1       143 1.61265E+01-1.53023E+02 6.04696E+02
 -1       144 2.71274E+01-2.59886E+01 1.18237E+02
 -1       145 8.86697E+00 4.31738E+02 5.30639E-01
 -1       146 4.29809E+01 2.29803E+02 1.10141E+02
 -1       147 2.52871E+01 5.72713E+02 2.90199E+02
 -1       148-3.30268E+01 5.72353E+02-2.89199E+02
 -1       149-5.20139E+01 2.26368E+02-1.11022E+02
 -1       150-2.30859E+01 1.17762E+02-2.55592E+01
 -1       151-4.65553E+01 1.12017E+02-7.78229E+01
 -1       152 3.68003E+00 2.28775E+02-9.29483E-01
 -1       153 2.26446E+01 1.18342E+02 2.53937E+01
 -1       154 3.26748E+01 3.35298E+02 8.11671E+01
 -1       155-3.04427E+01 3.33527E+02-8.42132E+01
 -1       156 4.36058E+01 1.13221E+02 7.79062E+01
 -1       157-4.91786E+01 3.34099E+02-2.52025E+02
 -1       158 4.30424E+01 3.37849E+02 2.53014E+02
 -1       159 4.79362E+01 4.33260E+02 2.16986E+02
 -1       160 3.34293E+01 5.14712E+02 3.86665E+02
 -1       161 2.10815E+01 5.10049E+02 1.32425E+02
 -1       162 1.98295E+01 6.13348E+02 4.63743E+02
 -1       163 1.50891E+01 6.05505E+02 1.54656E+02
 -1       164 9.60613E-01 5.65493E+02-3.43466E-01
 -1       165-1.63311E+01 6.06112E+02-1.56041E+02
 -1       166-2.39508E+01 5.09193E+02-1.28494E+02
 -1       167-3.16654E+01 5.13684E+02-3.85574E+02
 -1       168-4.42823E+01 4.30382E+02-2.20777E+02
 -1       169-1.97098E+01 6.14997E+02-4.63284E+02
 -1       170 6.40465E+00-4.34680E+02-1.74573E+00
 -1       171-2.80467E+01-5.68818E+02 2.89494E+02
 -1       172 2.65253E+01-5.70546E+02-2.90135E+02
 -1       173-5.69825E+01-2.28506E+02 1.14176E+02
 -1       174 5.11307E+01-2.27236E+02-1.10018E+02
 -1       175-5.01663E+01-3.36567E+02 2.56458E+02
 -1       176-4.73842E+01-1.11765E+02 7.72139E+01
 -1       177-3.37190E+01-3.37027E+02 8.53992E+01
 -1       178-4.29799E+01-4.34517E+02 2.18885E+02
 -1       179-3.33492E+01-5.12567E+02 3.87613E+02
 -1       180-2.08403E+01-6.13722E+02 4.62607E+02
 -1       181-1.86039E+01-5.08149E+02 1.33695E+02
 -1       182 3.03593E+01-5.12128E+02-3.88297E+02
 -1       183 2.28119E+01-5.08153E+02-1.33931E+02
 -1       184 4.72326E+01-4.32670E+02-2.20749E+02
 -1       185 1.69720E+01-6.13629E+02-4.61952E+02
 -1       186 1.80295E+01-6.04005E+02-1.53749E+02
 -1       187 4.38324E+00-5.64818E+02 1.74156E-01
 -1       188-2.73075E+01-1.18011E+02 2.57841E+01
 -1       189 1.02022E+00-2.29603E+02 6.63521E-01
 -1       190 4.78547E+01-3.35759E+02-2.52500E+02
 -1       191 3.44233E+01-3.34562E+02-8.38865E+01
 -1       192 4.64872E+01-1.13137E+02-7.74419E+01
 -1       193 2.35549E+01-1.17741E+02-2.46448E+01
 -1       194-1.39474E+01-6.04260E+02 1.53012E+02
 -1       195 3.20362E-01-8.21045E+01 8.19773E+01
 -1       196 9.77662E-02 1.25964E+02-1.26061E+02
 -1       197 1.09359E+01 5.36246E+01-8.66958E+01
 -1       198 8.95487E+00 5.52521E+01-1.71696E+02
 -1       199 8.55636E+00 1.44359E+02-2.39097E+02
 -1       200 1.94310E-01 5.87474E+01-2.95238E+02
 -1       201-9.52249E-01 1.05906E+02-1.06413E+02
 -1       202 8.13398E+00 3.84300E+02 2.57308E+02
 -1       203 1.90705E+00 4.31500E+02 4.31442E+02
 -1       204-8.00886E-01 2.02701E+02 2.03286E+02
 -1       205 4.86670E+00 3.39368E+02 6.90545E+01
 -1       206 5.74416E-01 2.95002E+02-5.83036E+01
 -1       207-3.79045E+00 1.54592E+02 3.05373E+02
 -1       208-9.72945E+00 3.07325E+02 4.57415E+02
 -1       209-7.79143E+00-4.23338E+02 1.43914E+02
 -1       210-9.90994E+00-4.56974E+02 3.05881E+02
 -1       211 4.40864E+00-3.05182E+02-1.54084E+02
 -1       212 9.95882E+00-4.56895E+02-3.06726E+02
 -1       213 9.57992E+00-2.51027E+02-1.68302E+02
 -1       214 1.72903E+00-1.70254E+02-1.69589E+02
 -1       215-7.68498E+00 8.58382E+01-5.41280E+01
 -1       216-6.82927E+00 1.72300E+02-5.57628E+01
 -1       217 2.92941E+00-1.52406E+02 3.05444E+02
 -1       218 9.63194E+00-3.07126E+02 4.58221E+02
 -1       219-5.17726E-01 4.05550E-01 2.83447E+02
 -1       220 3.47158E-01 5.69668E+01 1.75201E+02
 -1       221-1.71969E-01 7.47594E+01-7.46339E+01
 -1       222 1.66290E+00-2.83182E+02 7.81570E-01
 -1       223 1.21086E+00-2.02788E+02-2.02152E+02
 -1       224-3.61508E-01-1.74836E+02-5.68997E+01
 -1       225 3.50948E-01-2.15219E+02-2.17094E+02
 -1       226-6.23924E-01-1.05244E+02-1.05663E+02
 -1       227 2.12555E+00-4.70398E+01-1.43168E+02
 -1       228-1.27905E+00-2.41595E+02 4.78888E+01
 -1       229 1.07796E+00 1.15624E+02-1.69003E+00
 -1       230 8.95995E-02 3.67430E+01-3.68790E+01
 -1       231 7.45193E+00-1.79262E+02 2.94502E+02
 -1       232-6.80781E-01-6.90308E+01 6.96312E+01
 -1       233 9.23375E-01-4.84628E+01 2.41578E+02
 -1       234-8.45091E-01 1.47464E+00-1.15698E+02
 -1       235-6.79529E-01 2.16795E+02 2.15611E+02
 -1       236-1.67374E+00 1.42944E+02 4.72314E+01
 -1       237 9.98561E-02-2.12323E+01 2.12093E+01
 -1       238 2.07840E-01 7.16620E-01-6.97116E-01
 -1       239-8.64690E+00 4.56965E+02-3.08513E+02
 -1       240-2.20213E+00 3.66399E+02-7.46924E+01
 -1       241 2.38195E-02 2.22115E+02-2.21827E+02
 -1       242-6.50000E+00 3.39205E+02-2.04835E+02
 -1       243 9.23889E+00 3.09165E+02-4.56300E+02
 -1       244 2.40287E+00 7.49549E+01-3.66007E+02
 -1       245 6.35316E+00 2.04851E+02-3.39142E+02
 -1       246 4.54718E-01 4.32285E+02-4.31546E+02
 -1       247-6.02238E-01 2.96881E+02-2.96778E+02
 -1       248-1.05801E-01-1.69849E+02 1.70293E+02
 -1       249 6.56198E+00-1.05909E+02 1.78149E+02
 -1       250-6.39732E+00-1.78019E+02 1.05960E+02
 -1       251-6.45605E-01-2.42729E+02 2.44423E+02
 -1       252 7.06595E+00-5.30873E+01 8.54155E+01
 -1       253 1.77756E+00-2.07829E+01 1.09920E+02
 -1       254 1.07363E-01-6.44913E+01 6.44459E+01
 -1       255-7.01730E+00-8.53959E+01 5.30644E+01
 -1       256-1.50022E+00-1.10112E+02 2.05521E+01
 -1       257-7.55911E+00 3.52082E+01 1.77928E+02
 -1       258-4.40651E+00-6.87046E+01-3.39122E+02
 -1       259 2.74766E+00-6.54679E+01-2.14967E+01
 -1       260-7.71422E+00 5.38602E+01 8.44365E+01
 -1       261 7.77537E+00 8.46569E+01 5.37431E+01
 -1       262 9.00828E+00 4.55857E+02 3.08401E+02
 -1       263-2.03538E+00-4.30759E+02-4.31072E+02
 -1       264 6.73609E+00-8.59989E+01-5.32367E+01
 -1       265-1.61921E+00 1.69473E+02-1.69648E+02
 -1       266-9.35335E+00-5.38056E+01-8.53224E+01
 -1       267-2.59122E+00-4.30134E+02 4.29911E+02
 -1       268-9.02412E-01 1.68666E+02 1.70088E+02
 -1       269-8.88700E+00-3.08000E+02-4.55237E+02
 -1       270 1.97804E+00 3.02688E+02 1.52503E+02
 -1       271 2.21969E+00 5.93644E+01 2.64236E+01
 -1       272 8.57649E-01 1.05239E+02 1.05235E+02
 -1       273-1.46276E+01 2.49351E+02-1.67464E+02
 -1       274-8.06635E+00-2.56686E+02-3.84129E+02
 -1       275-1.71010E+00-1.52199E+02-3.02209E+02
 -1       276-6.98805E-01-2.71522E+01-5.92059E+01
 -1       277-1.05493E+01-3.81847E+02 2.59168E+02
 -1       278-1.14759E+01 1.67484E+02 2.52004E+02
 -1       279 9.05848E+00-1.72161E+02-5.49367E+01
 -1       280-1.45418E+00 2.75421E+01 5.84888E+01
 -3
    1PSTEP                         8           1           1          
    1PGM                1.000000E+00                                  
    1PGK                2.779208E+11                                  
    1PHID                         -1                                  
    1PSUBC                         0                                  
    1PMODE                         3                                  
  100CL  103 8.39036E+04         280                     2    3MODAL      1
 -4  STRESS      6    1
 -5  SXX         1    4    1    1
 -5  SYY         1    4    2    2
 -5  SZZ         1    4    3    3
 -5  SXY         1    4    1    2
 -5  SYZ         1    4    2    3
 -5  SZX         1    4    3    1
 -1         1-1.87245E+05-4.91434E+04 1.48557E+05 6.01920E+06-6.33575E+04-5.98611E+06
 -1         2 1.72474E+05 9.41429E+04-8.25077E+04-6.19722E+06 1.10319E+04-6.03012E+06
 -1         3-1.71173E+05 7.93716E+04-5.22399E+04 6.06510E+06 4.02806E+04 6.17303E+06
 -1         4-2.51164E+04-9.56435E+04 7.83374E+04-5.90889E+06-1.01175E+03 5.90166E+06
 -1         5-1.27193E+04-8.05535E+05 7.87352E+05-4.62248E+05 2.19877E+03 4.49313E+05
 -1         6 5.46591E+04 7.51997E+05-7.51933E+05 4.42679E+05-3.20060E+04 3.83723E+05
 -1         7-5.28825E+04 7.56364E+05-7.59739E+05-3.91132E+05 2.84452E+04-4.47346E+05
 -1         8 4.74759E+03-7.56892E+05 6.48450E+05 3.57157E+05 5.83713E+04-3.65012E+05
 -1         9-7.12288E+05 1.47830E+05 1.05261E+04-2.27853E+05 1.40099E+05-1.03142E+07
 -1        10 6.98139E+06-1.95076E+00 2.70538E+00 3.73301E+06-9.73653E-01-9.28516E+06
 -1        11-7.18406E+06 1.70999E+00-2.23492E+00-3.88921E+06-1.75922E+00-9.33950E+06
 -1        12 8.48595E+05-1.48854E+04-1.45453E+05 1.02984E+07-1.35666E+05 1.90238E+05
 -1        13-6.98145E+06-2.51650E+00 2.13495E+00 9.32752E+06 1.27883E+00-3.82967E+06
 -1        14 7.16156E+06 2.24300E+00-1.83373E+00 9.33282E+06 2.13249E+00 3.85832E+06
 -1        15-1.46110E+05 1.03442E+05 2.50932E+04 2.42500E+05 2.05220E+05 1.04768E+07
 -1        16-7.13761E+06 1.88114E+00-1.81178E+00 3.91320E+06-2.30055E+00 9.36620E+06
 -1        17 7.34499E+06-1.31369E+00 2.79642E+00-3.69541E+06-1.76550E+00 9.26396E+06
 -1        18-4.44998E+05-3.70732E+03 1.68973E+04-1.02892E+07-2.05673E+05 3.36366E+04
 -1        19 7.11625E+06 2.01688E+00-1.92160E+00-9.38067E+06 1.33225E+00-3.76618E+06
 -1        20-7.39204E+06-2.73619E+00 1.37139E+00-9.24179E+06 1.65468E+00 3.67278E+06
 -1        21-7.55474E+04 5.43206E+03 4.32152E+04-2.25311E+05-2.92858E+05-1.81219E+06
 -1        22-2.17773E+05-3.90828E+05 9.14869E+05-3.77894E+05-3.84355E+05-4.79041E+05
 -1        23 1.86550E+05 2.98469E+05-8.11776E+05 1.47861E+05-3.06469E+05-5.26834E+05
 -1        24 7.14410E+04-4.43667E+04-1.14266E+04 1.80582E+06 2.74718E+05 2.21464E+05
 -1        25 1.81111E+05-9.24411E+05 3.92348E+05 4.70416E+05 3.85483E+05 3.63989E+05
 -1        26-1.87302E+05 8.17565E+05-3.05495E+05 5.17185E+05 2.95494E+05-1.50259E+05
 -1        27 4.53533E+04-2.48024E+04 1.35214E+04-7.84514E+03-6.00351E+05 1.67996E+06
 -1        28 1.46644E+05 2.21378E+05-1.09429E+06-1.08211E+05-3.44275E+05 4.71299E+05
 -1        29-3.86640E+04-2.77808E+05 1.13298E+06 9.53791E+04-3.21285E+05 5.63094E+05
 -1        30-4.21379E+04 2.57103E+04 5.69897E+04-1.61997E+06 4.68848E+05-8.60300E+04
 -1        31-1.60780E+05 1.16605E+06-2.50702E+05-4.00858E+05 3.05432E+05 9.88034E+04
 -1        32 1.41126E+05-1.16246E+06 3.21749E+05-5.27587E+05 4.23606E+05-1.70179E+05
 -1        33 1.66113E+05-9.62355E+04 1.80228E+05 3.01443E+06 6.19934E+04-2.96513E+06
 -1        34 1.79002E+05-4.05362E+05 4.41275E+05 3.11397E+06 1.62803E+05-3.57542E+06
 -1        35-1.50303E+05-1.59744E+05 1.68620E+05 1.14260E+06 1.30131E+04-1.16322E+06
 -1        36-4.89201E+05-5.05033E+03-1.48308E+05-2.88944E+06 6.12552E+04-2.88650E+06
 -1        37-1.07876E+05 4.35861E+05-3.81223E+05-3.27679E+06 1.31503E+05-3.51460E+06
 -1        38-3.27769E+04 1.46265E+05-1.74242E+05-1.02113E+06-2.81195E+04-1.09793E+06
 -1        39 4.87591E+05 1.52857E+05-2.28891E+04 2.84436E+06-9.83186E+04 2.86542E+06
 -1        40 9.53793E+04 3.60863E+05-4.05172E+05 3.52159E+06-1.01827E+05 3.12465E+06
 -1        41 2.40350E+04 1.71486E+05-1.52347E+05 1.09509E+06 1.87184E+04 1.00998E+06
 -1        42-1.29916E+05-2.52024E+05 2.90384E+05-2.89737E+06-1.03238E+05 2.84910E+06
 -1        43-1.66637E+04-4.08219E+05 4.93719E+05-3.27410E+06-2.12855E+04 3.25161E+06
 -1        44-1.00334E+05-8.90870E+04 6.19588E+04-1.09501E+06 1.40755E+04 1.11538E+06
 -1        45 1.75189E+05-1.15580E+05 1.46060E+05 1.11903E+05 1.21170E+03 4.21146E+04
 -1        46 4.45381E+05-3.64084E+05 2.20095E+05-4.45372E+06-9.79745E+04-4.75974E+06
 -1        47-2.14418E+05 6.22973E+05-5.32415E+05 4.47408E+06 3.52191E+04-4.51213E+06
 -1        48 7.34578E+03 3.54106E+05-3.59206E+05-4.73558E+06 5.25525E+02 4.73243E+06
 -1        49-6.65706E+04-3.20630E+04 6.36786E+04 4.45214E+06 1.58074E+04 4.43602E+06
 -1        50-3.39535E+05-2.29427E+05 2.17641E+05-5.70306E+06-5.89299E+03-5.58585E+06
 -1        51-1.70416E+06 1.21526E+00-2.60616E+00-1.93765E+06-1.32623E+00-7.11460E+06
 -1        52-4.89768E+04 2.02510E-01 7.88805E+04 1.22272E+05 3.61671E+04-5.17178E+06
 -1        53 9.74352E+05-1.46118E+05 7.63453E+04-2.41142E+06-3.48858E+04-2.43779E+06
 -1        54 1.02926E+06 2.60177E+05-6.22594E+04 2.02758E+06 9.89572E+04-7.43192E+06
 -1        55 1.67797E+05 2.66093E+05-2.26973E+05 5.59366E+06-1.95595E+04-5.67476E+06
 -1        56 2.14033E+04 3.03479E+05-2.79092E+05 2.33503E+06-1.21932E+04-2.34907E+06
 -1        57-6.58475E+05 1.16633E+05-2.29460E+05 7.37579E+06-5.64120E+04-2.13762E+06
 -1        58 1.97238E+05-7.78846E+04-7.86711E-02 5.18782E+06-4.82852E+04-1.63684E+05
 -1        59 1.42869E+06 2.95956E+00-1.14244E+00 7.04769E+06 1.42856E+00 1.92528E+06
 -1        60-1.00730E+05-1.60754E+05 1.94511E+05 5.58306E+06 1.68780E+04 5.60414E+06
 -1        61-1.02224E+04-5.94120E+04 1.00256E+05 2.54526E+06 2.04218E+04 2.46288E+06
 -1        62 4.93064E+05-7.79849E+03 1.90763E+05-7.35100E+06-9.14808E+04-2.01810E+06
 -1        63-1.66459E+05-4.27823E-01 2.87879E-01-4.81551E+06 6.43205E-01 4.12094E+04
 -1        64 5.24743E+05 2.36414E+05 1.42359E+04-2.00964E+06 1.25323E+05 7.20302E+06
 -1        65-5.23131E+03 2.56428E+05-2.61026E+05-5.55786E+06 2.29855E+03 5.55665E+06
 -1        66 5.01729E+03-6.15615E-01 6.33959E-01-2.38244E+06 6.33107E-04 2.38219E+06
 -1        67-3.26652E+04 3.69484E-01-7.87096E+04-6.79933E+04 9.98112E+03 4.93779E+06
 -1        68-5.23906E+05-3.85870E+03-2.42528E+05-7.20391E+06-1.23191E+05 1.98742E+06
 -1        69-1.33643E+06 1.31611E+00-2.49548E+00 2.01414E+06-1.67618E+00 7.04066E+06
 -1        70-3.26884E+02 6.33323E+04-1.01516E+05 3.36047E+05-2.57598E+04-5.16343E+05
 -1        71 1.80691E+04 8.67415E+05-8.02598E+05 2.60301E+05-1.81998E+05 1.83730E+05
 -1        72 1.39853E+05-7.49030E+05 5.12183E+05 6.82134E+05 2.47730E+05 1.73532E+05
 -1        73-3.64440E+04 8.04975E+05-8.59344E+05-1.97342E+05 1.62592E+05-2.66648E+05
 -1        74 4.17111E+03-1.32735E+06 1.29660E+06-1.02688E+05-1.52796E+04 9.26133E+04
 -1        75-8.05163E+04-9.58220E+05 2.82422E+05-3.02529E+05 4.50372E+05 1.85857E+05
 -1        76-4.65704E+04-9.22959E+05 5.93564E+05 4.03728E+05 4.04046E+04-2.52790E+05
 -1        77 2.94546E+05-4.69097E+05 9.38489E+05 1.28190E+05-3.94825E+05 3.90159E+05
 -1        78 8.66572E+04 2.89596E+05 1.39649E+05 1.27215E+05 3.72678E+05-6.96390E+04
 -1        79 3.59654E+05-3.10327E+05 2.86707E+05 8.91423E+05 2.17264E+05-4.41241E+05
 -1        80-1.19510E+05-1.87759E+05 1.28277E+04 3.05776E+04-4.04489E+05-2.05826E+05
 -1        81 1.77043E+05 5.96479E+05-3.66622E+05 4.60042E+05 3.41246E+05-1.51060E+05
 -1        82-5.27760E+04 8.83110E+05-8.72653E+05-2.49821E+05 8.18309E+04-3.15287E+05
 -1        83-1.51719E+05 2.92380E+05-8.95702E+05-3.24343E+04-2.98300E+05 4.09947E+05
 -1        84-9.06820E+04 2.85513E+05-5.68902E+05-4.02105E+05 3.84088E+05-4.69487E+05
 -1        85 6.85273E+04 5.07653E+05-2.81689E+05 5.03934E+05 5.57511E+05 3.16551E+04
 -1        86-1.77877E+05-1.00044E+06 6.22507E+05 7.69965E+05 1.20243E+05 2.60247E+05
 -1        87-9.04386E+03-1.11875E+06 1.10998E+06-2.75999E+05 7.73499E+02 2.61605E+05
 -1        88 1.75017E+05-6.41903E+05 9.75048E+05-2.68571E+05-1.45522E+05-7.74939E+05
 -1        89 1.78875E+04-3.22997E+05 2.65058E+05-2.00967E+05-3.08051E+04 1.84080E+05
 -1        90-4.34966E+04 2.30725E+05-5.16602E+05-4.53650E+04-5.98833E+05-4.97799E+05
 -1        91 1.63139E+05 9.95911E+05-3.38020E+05-3.61562E+05 2.46953E+05 2.67239E+04
 -1        92 4.62058E+04 8.68962E+05-8.80679E+05 3.05771E+05-9.10194E+04 2.40612E+05
 -1        93 3.49440E+04 5.32942E+05-2.67274E+05 4.55162E+05-4.05150E+05 3.75508E+05
 -1        94-1.82370E+05 3.64287E+05-5.87326E+05 1.50852E+05-3.62876E+05-4.63871E+05
 -1        95 3.85359E+05 2.77106E+04-2.17378E+05 4.54282E+05 2.67070E+04-9.59688E+06
 -1        96 6.67572E+05 3.41141E+05-4.58774E+05-3.29594E+05-7.60963E+04-3.96561E+06
 -1        97-1.57557E+06-5.81465E+04 5.88075E+05-5.52778E+04-1.93739E+05-4.03567E+06
 -1        98 7.56747E+05-9.52516E+04-9.93043E+04 6.38911E+05 3.39594E+03-9.45765E+06
 -1        99-7.00310E+05-3.00771E+05 3.58854E+05-1.68532E+06 1.18825E+05-9.24288E+06
 -1       100 1.71770E+06 3.05157E+05-2.02238E+05 2.80693E+06 3.12331E+04-7.68755E+06
 -1       101 1.61615E+06 3.05134E+05-3.06993E+05 4.28201E+03 2.45797E+05-1.05559E+07
 -1       102-3.68294E+05 1.26196E+05-7.74969E+04-5.42673E+05 3.05668E+05-1.05723E+07
 -1       103 6.15765E+05-2.44370E+05-7.49248E+04 4.10154E+04 4.78124E+04-1.09665E+07
 -1       104 2.05581E+05-4.72369E+04-2.02851E+05-3.64553E+05 6.42899E+04-9.40228E+06
 -1       105-2.00784E+06-1.91825E+05 3.27746E+05-1.02739E+06 2.11233E+05-1.00142E+07
 -1       106-1.27643E+06-3.43203E+05 1.97462E+05-2.97902E+06 1.56300E+05-8.02512E+06
 -1       107 1.08195E+06 1.01206E+05-2.26077E+05 3.81945E+05-2.82842E+05-6.70920E+06
 -1       108 8.04981E+05 1.47741E+05-2.33356E+05-8.29143E+05-1.37730E+04-4.14244E+06
 -1       109 1.21049E+06 5.12696E+04-2.97435E+05-7.29168E+04 5.90255E+04-6.85807E+06
 -1       110 3.24464E+05-1.37838E+04-1.84018E+02-2.63435E+05-2.88144E+05-5.64315E+06
 -1       111 3.05279E+05-3.23060E+03-3.90938E+05-3.03162E+05-2.23333E+05-2.84354E+06
 -1       112 5.94854E+05 4.06909E+05-5.71634E+05 1.12591E+05-7.55778E+04-1.77684E+06
 -1       113-7.49876E+05-2.15653E+04 2.05888E+05-4.74986E+04-3.23428E+05-7.61896E+06
 -1       114-8.73553E+05 9.86705E+04 5.79928E+05-1.84131E+05-1.55986E+05-3.10357E+06
 -1       115-5.50610E+05-4.44794E+04 2.05787E+05 1.25569E+06 3.11591E+04-7.51763E+06
 -1       116-1.13072E+06 3.94216E+04 2.65974E+05 1.19523E+06-1.53923E+05-3.79664E+06
 -1       117-9.17920E+05-3.08100E+05 6.36905E+05-2.24259E+05-1.19989E+05-1.56776E+06
 -1       118 5.57970E+05-2.79949E+05 1.97589E+05 1.82954E+06 2.57887E+04-6.05411E+06
 -1       119-8.62533E+05-1.80713E+04 5.91272E+04-1.83591E+06-4.50649E+04-6.40693E+06
 -1       120 1.90626E+02 1.25356E+05-2.16487E+05-8.09185E+05-2.95217E+04 9.08901E+06
 -1       121 7.62743E+05 4.77563E+05-5.61079E+05 1.01898E+04-1.51363E+05 3.84352E+06
 -1       122-8.59422E+05-4.23442E+05 3.53439E+05 1.62202E+06 1.62338E+05 9.69884E+06
 -1       123-9.19803E+05-4.17980E+05 6.51848E+05 1.71570E+05-1.12098E+05 3.99600E+06
 -1       124 1.59720E+06 3.37523E+04-6.20468E+05-6.63070E+05 1.29586E+05 9.95774E+06
 -1       125-1.12032E+06-5.30668E+05 5.47101E+05-9.81475E+05-8.75499E+04 3.67077E+06
 -1       126-3.89486E+05-6.97903E+04 1.30165E+05-2.82542E+05 1.17536E+05 7.23492E+06
 -1       127-1.65563E+06-1.69774E+05 2.54211E+05-1.14540E+06-1.49000E+05 7.25341E+06
 -1       128-6.47150E+05-3.88470E+05 5.34662E+05 2.83769E+05-1.02147E+05 1.63496E+06
 -1       129-1.30195E+05 1.25539E+04-2.96830E+04-1.54889E+06-9.36530E+04 6.25998E+06
 -1       130 1.01512E+05-1.11149E+05-2.00032E+05-3.20490E+05-2.23964E+05 1.08899E+07
 -1       131 2.19454E+06 1.71292E+05-3.14971E+05-2.55926E+06 2.15852E+05 7.80456E+06
 -1       132 1.22567E+06 4.53096E+05-3.06842E+05 9.51530E+05-5.06324E+04 3.78664E+06
 -1       133 2.09257E+05 1.45920E+05-7.50680E+04-2.83736E+05-6.26729E+04 6.94153E+06
 -1       134 4.53764E+05 4.16535E+05-4.27550E+05-3.66092E+05-1.38347E+05 6.13618E+06
 -1       135 5.41485E+05 4.62929E+05-6.07836E+05-2.72152E+05-1.20876E+05 1.60659E+06
 -1       136 5.47568E+05-5.45547E+04-5.43548E+05 2.78154E+05-4.30808E+05 2.77663E+06
 -1       137 4.07184E+05 9.46199E+04-7.23742E+04-5.12580E+04-4.16012E+04 5.49326E+06
 -1       138-1.68003E+06-2.05710E+05 3.37147E+05 1.16572E+06 2.68512E+05 1.00969E+07
 -1       139-4.40017E+05 4.19006E+04 1.74089E+05 3.51879E+05 1.45113E+05 1.12399E+07
 -1       140-5.63339E+05-1.76631E+05 8.79483E+04 1.57585E+05-1.45327E+05 9.67901E+06
 -1       141-1.62428E+06-2.93677E+05 9.70522E+04 2.72159E+06 2.24254E+05 8.24623E+06
 -1       142 5.54705E+05-2.83493E+05 3.82342E+04 8.97828E+05-1.27040E+05 6.87175E+06
 -1       143-6.87848E+05 1.46227E+05 5.74880E+05-2.79104E+05-5.40963E+05 2.97607E+06
 -1       144 2.06017E+06 1.42353E+05-4.11938E+05-1.09166E+05 2.78414E+05 1.05973E+07
 -1       145-4.72148E+05 1.91415E+05 7.36187E+04 9.67643E+06-1.07509E+04-1.07127E+05
 -1       146 7.63013E+05-4.32020E+05 3.61963E+05 9.12486E+06-9.98963E+04 1.75913E+06
 -1       147-6.66792E+05 4.57074E+05-3.20069E+05 3.96407E+06 8.87352E+04 3.42753E+05
 -1       148 1.59396E+06-6.45347E+05 4.45088E+04 3.99646E+06 1.49609E+05 7.15377E+03
 -1       149-7.29544E+05 3.73664E+05-5.09001E+05 1.03756E+07-1.05412E+05-9.89043E+04
 -1       150-1.46617E+06 3.21923E+05-4.33543E+05 1.05630E+07-3.24205E+05 2.07420E+05
 -1       151-2.18967E+06 2.31751E+05-3.30006E+05 7.95306E+06-1.43375E+05-2.63840E+06
 -1       152 3.54681E+05 2.83548E+04-1.13547E+05 1.05162E+07-2.88427E+05 5.52140E+05
 -1       153 2.22907E+06-3.61903E+05 1.66561E+05 9.97770E+06-2.19464E+05 1.00171E+06
 -1       154-2.94379E+05 2.03073E+05 6.10331E+04 9.39623E+06-4.99265E+04 4.01051E+05
 -1       155-3.58884E+05 7.07778E+04 1.69266E+05 1.07940E+07-1.36986E+04 1.13527E+06
 -1       156 1.34424E+06-2.36916E+05 3.55917E+05 8.02650E+06-1.92232E+05 2.81362E+06
 -1       157 1.00433E+06 5.12393E+04-4.88756E+05 6.58117E+06 1.45042E+05-9.23435E+05
 -1       158 1.00698E+06-1.50713E+05 3.12857E+04 6.31361E+06-1.79235E+04 1.76159E+06
 -1       159-1.30023E+06 2.88264E+05-6.06332E+04 6.88048E+06-6.28382E+04 1.03106E+05
 -1       160-8.16728E+05 2.34623E+05-1.56998E+05 4.14358E+06 1.29611E+04 8.15150E+05
 -1       161-1.04188E+06 2.25333E+05-7.08663E+04 6.70408E+06 2.72081E+05-3.39174E+05
 -1       162-5.93395E+05 5.73327E+05-4.00765E+05 1.77281E+06 8.02643E+04-1.05051E+05
 -1       163-3.04193E+05 3.96447E+05 1.38943E+04 2.83677E+06 2.25119E+05 3.09348E+05
 -1       164-2.96559E+05 5.60942E+03 6.09268E+04 5.62994E+06 2.74583E+05 3.06286E+05
 -1       165 8.90243E+05-5.99730E+05-1.16104E+05 3.08561E+06 1.28163E+05 1.61299E+05
 -1       166 8.07776E+05-2.12148E+05 5.90486E+04 7.59815E+06 3.41575E+05 1.12768E+05
 -1       167 9.03056E+05-2.20442E+05 7.35337E+04 3.68503E+06 1.57940E+05-1.26653E+06
 -1       168 2.44791E+04-9.81882E+04 3.18772E+05 7.38453E+06 7.25000E+04-4.79800E+05
 -1       169 9.14970E+05-6.79728E+05 2.93082E+05 1.54396E+06 1.04367E+05 1.97673E+05
 -1       170 3.70235E+05 4.38819E+04-1.78822E+05-9.06765E+06 1.88861E+03 6.55087E+05
 -1       171 1.02179E+06-6.09564E+05 4.97699E+05-4.50187E+06 1.06580E+05-1.61368E+05
 -1       172-6.74362E+05 5.43839E+05-4.72679E+05-3.83446E+06 1.78618E+05-5.48241E+03
 -1       173-1.55319E+06 6.12064E+05-3.42668E+04-9.96902E+06-1.09723E+05 7.10264E+05
 -1       174 5.33132E+05-1.63531E+05 4.30554E+05-1.02984E+07-8.34993E+04 7.49408E+04
 -1       175 1.73189E+05 1.70719E+05 1.05903E+04-6.29059E+06 3.20639E+04 1.67320E+06
 -1       176-2.20815E+06 3.05194E+05-1.94041E+05-7.81238E+06-2.15259E+05 2.57855E+06
 -1       177-1.30542E+05 6.89209E+04 6.89682E+04-1.08132E+07 2.64455E+05 2.00113E+05
 -1       178 1.82704E+06-1.34371E+05-9.44771E+04-7.04882E+06-4.70811E+04 8.82381E+05
 -1       179 6.27997E+05-3.67754E+05 2.48200E+05-3.99581E+06 4.51236E+04 7.77126E+05
 -1       180 6.78440E+05-6.23683E+05 5.02040E+05-1.94179E+06 1.78109E+05-1.20701E+05
 -1       181 6.50402E+05-2.51395E+05 1.54926E+05-6.94305E+06-1.10909E+05-5.55136E+05
 -1       182-1.22260E+06 2.91149E+05-4.57811E+05-3.80163E+06 5.57652E+04-9.48322E+05
 -1       183-1.82301E+05 3.46471E+05-4.70648E+05-6.15735E+06 1.24459E+05 4.08446E+05
 -1       184-2.06151E+05-1.62612E+03-2.45455E+05-7.03239E+06 2.08257E+04 3.63466E+05
 -1       185-4.93195E+05 5.93231E+05-4.48861E+05-1.60209E+06 1.33767E+05 2.77169E+05
 -1       186-4.32859E+05 5.98734E+05 4.15920E+04-2.67147E+06 4.21306E+05-2.35620E+05
 -1       187-9.59954E+04 4.50981E+04-1.85956E+05-5.27733E+06 1.07813E+05-3.63703E+04
 -1       188-2.05974E+06 3.81511E+05-1.35120E+05-1.05804E+07-2.57173E+05 1.03377E+05
 -1       189 2.56183E+05-2.24212E+05 9.01099E+04-1.06711E+07-1.49993E+05 3.76994E+05
 -1       190-9.44494E+05-4.60674E+02 4.20775E+05-6.61544E+06 9.53301E+04-7.74453E+05
 -1       191 5.69063E+05 1.67732E+04-3.90074E+04-1.03796E+07 4.89179E+03 1.34761E+06
 -1       192 2.04105E+06-9.20176E+04 3.25674E+05-8.01868E+06-8.05887E+04-2.52448E+06
 -1       193 1.47537E+06-2.58095E+05 3.70316E+05-1.05259E+07-3.08121E+05 3.54536E+05
 -1       194 3.97772E+05-7.22995E+05 1.36971E+05-3.20147E+06 1.67171E+05-5.17312E+04
 -1       195-7.36885E+04-6.94441E+04 9.92236E+04-2.10382E+06 1.76645E+04 2.13031E+06
 -1       196 4.51266E+04-1.95019E+05 2.15672E+05 1.45275E+06 2.36898E+04-1.32422E+06
 -1       197 1.90764E+05 4.48655E+05-5.35701E+05 2.66996E+06 4.76490E+04-6.99486E+06
 -1       198 1.85688E+05 2.56525E+05-2.90736E+05 1.99720E+06 1.31222E+05-7.10520E+06
 -1       199 8.53249E+05-3.58565E+05 2.92763E+05 1.18244E+06 1.35497E+03-4.83134E+06
 -1       200-8.47524E+04-6.57558E+04 3.74733E+04 5.75569E+05 2.94820E+04-5.30078E+06
 -1       201-3.31842E+05 1.46471E+05-1.83465E+04 2.95292E+06 4.90266E+04-2.13966E+06
 -1       202-6.15330E+04 2.44687E+05-3.97094E+05 4.12466E+06 2.49793E+04 1.56527E+06
 -1       203 7.08012E+04 5.81196E+05-5.85964E+05 1.84715E+06-3.07070E+04 1.89274E+06
 -1       204-1.62269E+05 2.37625E+05-3.13973E+05 1.08460E+06-2.21923E+05 1.30260E+06
 -1       205-3.24629E+05-1.70937E+05-7.91797E+04 2.88939E+06-1.64456E+05-1.57339E+05
 -1       206 9.08755E+04 1.97653E+04 6.86611E+04 5.39312E+06 3.23703E+03-5.27712E+05
 -1       207 1.02118E+05 9.79958E+04-5.34014E+04 2.72730E+05 8.60975E+04 1.27144E+06
 -1       208 1.40413E+05 4.71570E+05-5.94133E+05 2.12165E+05-8.02264E+04 1.40177E+06
 -1       209-3.46464E+04-2.05550E+05 3.17457E+05-3.74670E+06 1.61653E+05 4.22537E+05
 -1       210 2.69315E+05-6.42193E+05 3.91222E+05-1.69200E+06 2.17074E+05 3.76570E+05
 -1       211-1.38979E+05 3.08710E+04-7.73748E+04-1.27031E+06-6.21066E+04-3.19439E+05
 -1       212-1.01110E+05 5.85583E+05-4.59347E+05-1.39156E+06 8.85188E+04-2.17778E+05
 -1       213-3.54360E+05-3.48176E+04-1.24333E+05-5.73913E+06 4.41222E+04-3.21985E+06
 -1       214 3.82801E+04-1.74458E+05 2.77982E+05-5.49168E+06 3.54375E+04-4.82784E+06
 -1       215-6.20335E+05 6.22194E+05-5.31721E+05 7.31065E+06-3.81624E+04-2.93632E+06
 -1       216-4.91992E+05 3.43552E+05-2.27346E+05 7.30743E+06-9.36905E+04-2.08740E+06
 -1       217-1.76938E+05 2.29044E+04-3.42785E+04 1.18346E+05-1.90768E+05 1.14178E+06
 -1       218-1.12148E+05-3.95941E+05 4.43216E+05 1.36366E+05-1.09415E+04 1.64780E+06
 -1       219 8.57122E+04 1.55176E+05-1.98008E+05 2.13104E+04-2.41469E+04 3.15878E+06
 -1       220-2.59978E+05 1.29982E+05-3.77053E+05 4.85948E+05-2.12033E+05 2.66978E+06
 -1       221-1.54740E+04-2.01675E+05 2.26870E+05 7.22943E+05 6.70523E+02-7.26566E+05
 -1       222 5.81851E+04 2.22982E+04-1.01215E+05-3.24564E+06 2.49816E+04 1.42244E+04
 -1       223 1.08530E+05 3.10158E+05-2.17381E+05-1.32198E+06 2.61084E+05-1.06059E+06
 -1       224 2.79073E+05 3.50486E+05-1.79202E+05-2.65851E+06 2.35428E+05-4.91937E+05
 -1       225 8.87506E+04 5.23873E+04-2.91416E+05-3.45222E+06 2.60281E+04-3.49945E+06
 -1       226-3.92481E+05-1.03849E+05 1.98737E+05-2.48436E+06-1.17119E+05-2.95919E+06
 -1       227 2.37359E+05 9.13084E+04-2.37031E+05-7.81361E+05-1.08907E+05-3.08931E+06
 -1       228-1.37320E+05-1.36570E+04 1.14078E+04-5.43249E+06-5.50380E+04 1.00859E+06
 -1       229 4.76856E+03 5.94008E+04-6.28582E+04 4.57182E+06-1.25959E+05-1.95770E+05
 -1       230 2.03699E+04-9.11105E+04 9.41824E+04 8.09017E+05 2.45500E+04-7.62252E+05
 -1       231-7.11126E+05-4.87797E+05 8.15294E+05-9.50447E+05 5.28596E+04 3.24653E+06
 -1       232-1.07588E+05-2.16619E+04 3.13440E+04-6.02507E+05-4.88526E+04 3.39598E+05
 -1       233 2.94467E+05-1.03114E+05-1.96481E+04-1.10448E+06 9.54810E+04 5.54529E+06
 -1       234-4.17139E+04 9.03406E+04-7.75757E+04 2.02273E+05 1.06593E+05-4.60840E+06
 -1       235-1.62031E+04 2.23068E+05-8.30959E+04 3.45230E+06-4.17517E+04 3.44494E+06
 -1       236-1.61760E+05 2.35169E+05-9.30854E+04 3.11200E+06 1.11315E+05 8.32519E+05
 -1       237 1.19927E+04-1.17860E+05 1.15746E+05-1.12168E+06 1.19399E+03 1.12588E+06
 -1       238-2.68246E+04-1.84893E+05 1.85349E+05-2.33235E+05 2.41091E+04 2.54266E+05
 -1       239 4.71802E+05-1.05475E+06 5.89793E+05 1.70513E+06-5.58308E+04-1.34940E+05
 -1       240-3.51038E+04-9.32089E+04 8.16461E+03 1.75272E+06 5.98397E+04-4.89618E+05
 -1       241-1.38601E+03-5.99123E+05 5.99590E+05 7.70528E+05-3.90421E+03-7.51376E+05
 -1       242 8.85659E+05-1.89866E+05 5.27147E+04 2.87788E+06 1.62717E+05-8.65524E+05
 -1       243-4.41582E+05-6.10250E+05 1.00786E+06 1.12211E+05 2.39438E+04-1.72396E+06
 -1       244-1.89430E+03-1.55033E+04 1.13079E+05 4.83420E+05-4.96617E+04-1.71874E+06
 -1       245-7.78922E+05-7.29813E+04 1.46442E+05 8.42164E+05-1.88630E+05-2.83142E+06
 -1       246 4.77096E+03-4.79449E+05 4.38365E+05 1.61748E+06-2.15054E+04-1.66489E+06
 -1       247-4.13816E+04-1.90287E+05 2.86501E+05 2.22466E+06-2.51788E+04-2.21949E+06
 -1       248 1.50292E+04 2.82665E+05-2.68378E+05-4.93753E+06 1.64183E+03 4.95767E+06
 -1       249 1.21628E+06-1.86253E+05-2.93583E+05-1.89202E+06 2.01920E+04 5.80931E+06
 -1       250-1.21384E+06 3.20648E+05 2.03703E+05-5.82377E+06 2.93715E+04 1.92739E+06
 -1       251-7.48397E+04-2.54563E+05 3.55474E+05-2.67092E+06-3.48631E+04 2.82058E+06
 -1       252 6.05489E+05 3.65772E+05-6.20087E+05-2.76585E+06 2.02323E+05 7.40891E+06
 -1       253 1.26662E+05 3.90058E+04-2.62879E+04-8.89524E+05 2.62652E+05 6.12992E+06
 -1       254 1.29440E+04 3.04211E+05-2.99947E+05-3.48240E+06 6.42057E+03 3.47564E+06
 -1       255-5.98359E+05 6.23219E+05-3.76380E+05-7.40831E+06-1.87158E+05 2.77508E+06
 -1       256-1.55300E+05 5.99576E+04-3.10138E+04-5.90742E+06-2.15426E+05 9.20151E+05
 -1       257-3.50003E+05-1.58982E+05 1.91222E+05 3.45326E+05 2.41861E+05 5.78177E+06
 -1       258 2.63525E+05 7.82110E+04 1.96045E+05 1.48786E+05 1.88933E+05-2.86220E+06
 -1       259 5.67700E+05-1.59619E+05-2.62276E+03-3.64142E+06-3.56017E+05-1.22790E+06
 -1       260-5.01327E+05-3.21059E+05 3.17329E+05 3.12913E+06 1.96563E+05 7.07463E+06
 -1       261 4.94391E+05-4.54846E+05 3.40347E+05 6.99378E+06-1.52218E+05 3.10374E+06
 -1       262-1.91842E+05 7.16458E+05-4.59125E+05 1.61146E+06 9.60969E+04 3.26991E+05
 -1       263-5.63086E+04 5.92597E+05-5.87521E+05-1.88320E+06 5.07090E+04-1.85582E+06
 -1       264 3.69283E+05-4.56098E+05 4.44922E+05-7.25472E+06-6.47634E+04-2.76257E+06
 -1       265-2.41965E+05 1.32292E+05-2.96724E+05 5.20254E+06-1.69642E+04-4.60241E+06
 -1       266-2.37484E+05-4.60445E+05 4.41864E+05-3.07197E+06 8.12258E+04-6.89375E+06
 -1       267 2.04483E+05-6.67631E+05 6.30468E+05-1.84073E+06 6.74797E+04 1.72152E+06
 -1       268 1.58055E+05-4.34956E+05 2.83625E+05 5.05070E+06-3.57066E+04 5.54857E+06
 -1       269 1.90132E+05 4.74325E+05-7.17083E+05-3.22898E+05-9.60602E+04-1.61199E+06
 -1       270-1.23807E+05 3.59525E+05-2.88970E+05 1.51773E+06 3.82384E+05 3.45668E+05
 -1       271 7.55499E+05-5.33681E+05 2.56510E+05 4.53957E+06-2.97860E+04 1.56150E+06
 -1       272-2.75001E+05-8.47391E+04 1.15925E+05 3.04160E+06 1.96688E+05 2.60600E+06
 -1       273 6.81960E+04-2.39810E+05 3.52020E+05 5.73713E+06-4.75221E+04-3.38076E+06
 -1       274 8.76603E+04 4.09243E+05-2.43668E+05-1.53350E+06-1.74044E+04-4.13415E+06
 -1       275 1.33604E+05 2.62164E+05-3.45489E+05-3.50799E+05-3.91795E+05-1.50804E+06
 -1       276-4.79826E+05-1.75686E+05 6.68629E+05-1.45903E+06 1.37029E+05-4.42661E+06
 -1       277 2.08905E+05-4.89606E+05 5.63600E+05-4.10578E+06-9.09019E+04 1.73659E+06
 -1       278 1.93558E+05-7.29296E+04 1.23139E+05 3.16578E+06-5.68157E+04 5.59487E+06
 -1       279 7.90020E+05-3.33060E+05 1.46351E+05-7.08869E+06-3.18030E+04-2.11099E+06
 -1       280-7.59164E+05-2.33710E+05 3.54890E+05 1.72549E+06 7.96230E+04 4.66891E+06
 -3
    1PSTEP                         9           1           1          
    1PGM                1.000000E+00                                  
    1PGK                2.779208E+11                                  
    1PHID                         -1                                  
    1PSUBC                         0                                  
    1PMODE                         3                                  
  100CL  103 8.39036E+04         280                     2    3MODAL      1
 -4  TOSTRAIN    6    1
 -5  EXX         1    4    1    1
 -5  EYY         1    4    2    2
 -5  EZZ         1    4    3    3
 -5  EXY         1    4    1    2
 -5  EYZ         1    4    2    3
 -5  EZX         1    4    3    1
 -1         1-9.36226E-01-2.45717E-01 7.42784E-01 3.00960E+01-3.16787E-01-2.99305E+01
 -1         2 8.62372E-01 4.70714E-01-4.12539E-01-3.09861E+01 5.51593E-02-3.01506E+01
 -1         3-8.55863E-01 3.96858E-01-2.61200E-01 3.03255E+01 2.01403E-01 3.08651E+01
 -1         4-1.25582E-01-4.78218E-01 3.91687E-01-2.95445E+01-5.05874E-03 2.95083E+01
 -1         5-6.35963E-02-4.02768E+00 3.93676E+00-2.31124E+00 1.09939E-02 2.24657E+00
 -1         6 2.73296E-01 3.75998E+00-3.75967E+00 2.21340E+00-1.60030E-01 1.91862E+00
 -1         7-2.64412E-01 3.78182E+00-3.79869E+00-1.95566E+00 1.42226E-01-2.23673E+00
 -1         8 2.37379E-02-3.78446E+00 3.24225E+00 1.78578E+00 2.91857E-01-1.82506E+00
 -1         9-3.56144E+00 7.39150E-01 5.26305E-02-1.13926E+00 7.00495E-01-5.15712E+01
 -1        10 3.49070E+01-9.75381E-06 1.35269E-05 1.86650E+01-4.86826E-06-4.64258E+01
 -1        11-3.59203E+01 8.54996E-06-1.11746E-05-1.94460E+01-8.79609E-06-4.66975E+01
 -1        12 4.24298E+00-7.44268E-02-7.27265E-01 5.14922E+01-6.78331E-01 9.51192E-01
 -1        13-3.49073E+01-1.25825E-05 1.06748E-05 4.66376E+01 6.39416E-06-1.91484E+01
 -1        14 3.58078E+01 1.12150E-05-9.16864E-06 4.66641E+01 1.06624E-05 1.92916E+01
 -1        15-7.30550E-01 5.17210E-01 1.25466E-01 1.21250E+00 1.02610E+00 5.23840E+01
 -1        16-3.56881E+01 9.40572E-06-9.05891E-06 1.95660E+01-1.15028E-05 4.68310E+01
 -1        17 3.67249E+01-6.56843E-06 1.39821E-05-1.84770E+01-8.82751E-06 4.63198E+01
 -1        18-2.22499E+00-1.85366E-02 8.44866E-02-5.14460E+01-1.02837E+00 1.68183E-01
 -1        19 3.55813E+01 1.00844E-05-9.60798E-06-4.69034E+01 6.66126E-06-1.88309E+01
 -1        20-3.69602E+01-1.36809E-05 6.85693E-06-4.62090E+01 8.27343E-06 1.83639E+01
 -1        21-3.77737E-01 2.71603E-02 2.16076E-01-1.12655E+00-1.46429E+00-9.06095E+00
 -1        22-1.08887E+00-1.95414E+00 4.57435E+00-1.88947E+00-1.92177E+00-2.39521E+00
 -1        23 9.32752E-01 1.49235E+00-4.05888E+00 7.39303E-01-1.53235E+00-2.63417E+00
 -1        24 3.57205E-01-2.21834E-01-5.71331E-02 9.02911E+00 1.37359E+00 1.10732E+00
 -1        25 9.05554E-01-4.62205E+00 1.96174E+00 2.35208E+00 1.92742E+00 1.81994E+00
 -1        26-9.36512E-01 4.08783E+00-1.52747E+00 2.58592E+00 1.47747E+00-7.51297E-01
 -1        27 2.26766E-01-1.24012E-01 6.76068E-02-3.92257E-02-3.00175E+00 8.39980E+00
 -1        28 7.33219E-01 1.10689E+00-5.47144E+00-5.41054E-01-1.72138E+00 2.35649E+00
 -1        29-1.93320E-01-1.38904E+00 5.66490E+00 4.76896E-01-1.60642E+00 2.81547E+00
 -1        30-2.10689E-01 1.28551E-01 2.84949E-01-8.09983E+00 2.34424E+00-4.30150E-01
 -1        31-8.03900E-01 5.83025E+00-1.25351E+00-2.00429E+00 1.52716E+00 4.94017E-01
 -1        32 7.05629E-01-5.81228E+00 1.60875E+00-2.63793E+00 2.11803E+00-8.50894E-01
 -1        33 8.30564E-01-4.81178E-01 9.01142E-01 1.50722E+01 3.09967E-01-1.48256E+01
 -1        34 8.95010E-01-2.02681E+00 2.20638E+00 1.55698E+01 8.14013E-01-1.78771E+01
 -1        35-7.51517E-01-7.98722E-01 8.43102E-01 5.71302E+00 6.50657E-02-5.81609E+00
 -1        36-2.44600E+00-2.52516E-02-7.41542E-01-1.44472E+01 3.06276E-01-1.44325E+01
 -1        37-5.39382E-01 2.17930E+00-1.90611E+00-1.63839E+01 6.57517E-01-1.75730E+01
 -1        38-1.63885E-01 7.31325E-01-8.71211E-01-5.10564E+00-1.40597E-01-5.48967E+00
 -1        39 2.43795E+00 7.64283E-01-1.14445E-01 1.42218E+01-4.91593E-01 1.43271E+01
 -1        40 4.76896E-01 1.80432E+00-2.02586E+00 1.76079E+01-5.09135E-01 1.56232E+01
 -1        41 1.20175E-01 8.57429E-01-7.61737E-01 5.47545E+00 9.35918E-02 5.04992E+00
 -1        42-6.49580E-01-1.26012E+00 1.45192E+00-1.44868E+01-5.16190E-01 1.42455E+01
 -1        43-8.33184E-02-2.04110E+00 2.46859E+00-1.63705E+01-1.06428E-01 1.62580E+01
 -1        44-5.01668E-01-4.45435E-01 3.09794E-01-5.47506E+00 7.03776E-02 5.57691E+00
 -1        45 8.75944E-01-5.77900E-01 7.30298E-01 5.59516E-01 6.05849E-03 2.10573E-01
 -1        46 2.22690E+00-1.82042E+00 1.10047E+00-2.22686E+01-4.89873E-01-2.37987E+01
 -1        47-1.07209E+00 3.11486E+00-2.66208E+00 2.23704E+01 1.76095E-01-2.25607E+01
 -1        48 3.67289E-02 1.77053E+00-1.79603E+00-2.36779E+01 2.62762E-03 2.36622E+01
 -1        49-3.32853E-01-1.60315E-01 3.18393E-01 2.22607E+01 7.90369E-02 2.21801E+01
 -1        50-1.69767E+00-1.14713E+00 1.08820E+00-2.85153E+01-2.94649E-02-2.79292E+01
 -1        51-8.52082E+00 6.07628E-06-1.30308E-05-9.68823E+00-6.63116E-06-3.55730E+01
 -1        52-2.44884E-01 1.01255E-06 3.94402E-01 6.11362E-01 1.80836E-01-2.58589E+01
 -1        53 4.87176E+00-7.30591E-01 3.81726E-01-1.20571E+01-1.74429E-01-1.21890E+01
 -1        54 5.14631E+00 1.30088E+00-3.11297E-01 1.01379E+01 4.94786E-01-3.71596E+01
 -1        55 8.38983E-01 1.33047E+00-1.13487E+00 2.79683E+01-9.77977E-02-2.83738E+01
 -1        56 1.07017E-01 1.51739E+00-1.39546E+00 1.16751E+01-6.09662E-02-1.17454E+01
 -1        57-3.29238E+00 5.83166E-01-1.14730E+00 3.68790E+01-2.82060E-01-1.06881E+01
 -1        58 9.86191E-01-3.89423E-01-3.93356E-07 2.59391E+01-2.41426E-01-8.18419E-01
 -1        59 7.14347E+00 1.47978E-05-5.71221E-06 3.52385E+01 7.14280E-06 9.62638E+00
 -1        60-5.03648E-01-8.03771E-01 9.72554E-01 2.79153E+01 8.43901E-02 2.80207E+01
 -1        61-5.11121E-02-2.97060E-01 5.01282E-01 1.27263E+01 1.02109E-01 1.23144E+01
 -1        62 2.46532E+00-3.89924E-02 9.53817E-01-3.67550E+01-4.57404E-01-1.00905E+01
 -1        63-8.32293E-01-2.13911E-06 1.43939E-06-2.40776E+01 3.21603E-06 2.06047E-01
 -1        64 2.62372E+00 1.18207E+00 7.11793E-02-1.00482E+01 6.26613E-01 3.60151E+01
 -1        65-2.61565E-02 1.28214E+00-1.30513E+00-2.77893E+01 1.14927E-02 2.77833E+01
 -1        66 2.50864E-02-3.07808E-06 3.16979E-06-1.19122E+01 3.16554E-09 1.19109E+01
 -1        67-1.63326E-01 1.84742E-06-3.93548E-01-3.39967E-01 4.99056E-02 2.46889E+01
 -1        68-2.61953E+00-1.92935E-02-1.21264E+00-3.60195E+01-6.15957E-01 9.93712E+00
 -1        69-6.68215E+00 6.58055E-06-1.24774E-05 1.00707E+01-8.38092E-06 3.52033E+01
 -1        70-1.63442E-03 3.16661E-01-5.07579E-01 1.68024E+00-1.28799E-01-2.58171E+00
 -1        71 9.03455E-02 4.33707E+00-4.01299E+00 1.30150E+00-9.09992E-01 9.18651E-01
 -1        72 6.99267E-01-3.74515E+00 2.56092E+00 3.41067E+00 1.23865E+00 8.67660E-01
 -1        73-1.82220E-01 4.02487E+00-4.29672E+00-9.86712E-01 8.12960E-01-1.33324E+00
 -1        74 2.08556E-02-6.63673E+00 6.48300E+00-5.13442E-01-7.63979E-02 4.63066E-01
 -1        75-4.02582E-01-4.79110E+00 1.41211E+00-1.51265E+00 2.25186E+00 9.29285E-01
 -1        76-2.32852E-01-4.61480E+00 2.96782E+00 2.01864E+00 2.02023E-01-1.26395E+00
 -1        77 1.47273E+00-2.34548E+00 4.69244E+00 6.40949E-01-1.97412E+00 1.95079E+00
 -1        78 4.33286E-01 1.44798E+00 6.98246E-01 6.36074E-01 1.86339E+00-3.48195E-01
 -1        79 1.79827E+00-1.55163E+00 1.43353E+00 4.45711E+00 1.08632E+00-2.20621E+00
 -1        80-5.97548E-01-9.38794E-01 6.41385E-02 1.52888E-01-2.02245E+00-1.02913E+00
 -1        81 8.85216E-01 2.98240E+00-1.83311E+00 2.30021E+00 1.70623E+00-7.55298E-01
 -1        82-2.63880E-01 4.41555E+00-4.36326E+00-1.24911E+00 4.09155E-01-1.57643E+00
 -1        83-7.58593E-01 1.46190E+00-4.47851E+00-1.62171E-01-1.49150E+00 2.04973E+00
 -1        84-4.53410E-01 1.42756E+00-2.84451E+00-2.01052E+00 1.92044E+00-2.34744E+00
 -1        85 3.42637E-01 2.53826E+00-1.40844E+00 2.51967E+00 2.78755E+00 1.58276E-01
 -1        86-8.89386E-01-5.00222E+00 3.11253E+00 3.84983E+00 6.01215E-01 1.30124E+00
 -1        87-4.52193E-02-5.59377E+00 5.54988E+00-1.37999E+00 3.86750E-03 1.30802E+00
 -1        88 8.75087E-01-3.20952E+00 4.87524E+00-1.34285E+00-7.27612E-01-3.87470E+00
 -1        89 8.94375E-02-1.61498E+00 1.32529E+00-1.00484E+00-1.54025E-01 9.20398E-01
 -1        90-2.17483E-01 1.15362E+00-2.58301E+00-2.26825E-01-2.99417E+00-2.48899E+00
 -1        91 8.15693E-01 4.97956E+00-1.69010E+00-1.80781E+00 1.23476E+00 1.33620E-01
 -1        92 2.31029E-01 4.34481E+00-4.40339E+00 1.52885E+00-4.55097E-01 1.20306E+00
 -1        93 1.74720E-01 2.66471E+00-1.33637E+00 2.27581E+00-2.02575E+00 1.87754E+00
 -1        94-9.11852E-01 1.82143E+00-2.93663E+00 7.54258E-01-1.81438E+00-2.31936E+00
 -1        95 1.92680E+00 1.38553E-01-1.08689E+00 2.27141E+00 1.33535E-01-4.79844E+01
 -1        96 3.33786E+00 1.70570E+00-2.29387E+00-1.64797E+00-3.80481E-01-1.98280E+01
 -1        97-7.87786E+00-2.90733E-01 2.94037E+00-2.76389E-01-9.68697E-01-2.01783E+01
 -1        98 3.78374E+00-4.76258E-01-4.96522E-01 3.19455E+00 1.69797E-02-4.72882E+01
 -1        99-3.50155E+00-1.50385E+00 1.79427E+00-8.42660E+00 5.94127E-01-4.62144E+01
 -1       100 8.58850E+00 1.52579E+00-1.01119E+00 1.40346E+01 1.56165E-01-3.84377E+01
 -1       101 8.08073E+00 1.52567E+00-1.53497E+00 2.14101E-02 1.22898E+00-5.27793E+01
 -1       102-1.84147E+00 6.30979E-01-3.87485E-01-2.71336E+00 1.52834E+00-5.28615E+01
 -1       103 3.07883E+00-1.22185E+00-3.74624E-01 2.05077E-01 2.39062E-01-5.48323E+01
 -1       104 1.02790E+00-2.36185E-01-1.01426E+00-1.82276E+00 3.21450E-01-4.70114E+01
 -1       105-1.00392E+01-9.59123E-01 1.63873E+00-5.13695E+00 1.05617E+00-5.00710E+01
 -1       106-6.38217E+00-1.71601E+00 9.87308E-01-1.48951E+01 7.81502E-01-4.01256E+01
 -1       107 5.40974E+00 5.06032E-01-1.13039E+00 1.90972E+00-1.41421E+00-3.35460E+01
 -1       108 4.02490E+00 7.38706E-01-1.16678E+00-4.14571E+00-6.88650E-02-2.07122E+01
 -1       109 6.05246E+00 2.56348E-01-1.48717E+00-3.64584E-01 2.95127E-01-3.42903E+01
 -1       110 1.62232E+00-6.89190E-02-9.20089E-04-1.31718E+00-1.44072E+00-2.82158E+01
 -1       111 1.52639E+00-1.61530E-02-1.95469E+00-1.51581E+00-1.11667E+00-1.42177E+01
 -1       112 2.97427E+00 2.03454E+00-2.85817E+00 5.62957E-01-3.77889E-01-8.88422E+00
 -1       113-3.74938E+00-1.07826E-01 1.02944E+00-2.37493E-01-1.61714E+00-3.80948E+01
 -1       114-4.36777E+00 4.93352E-01 2.89964E+00-9.20653E-01-7.79930E-01-1.55179E+01
 -1       115-2.75305E+00-2.22397E-01 1.02894E+00 6.27847E+00 1.55795E-01-3.75882E+01
 -1       116-5.65358E+00 1.97108E-01 1.32987E+00 5.97617E+00-7.69613E-01-1.89832E+01
 -1       117-4.58960E+00-1.54050E+00 3.18452E+00-1.12129E+00-5.99944E-01-7.83878E+00
 -1       118 2.78985E+00-1.39975E+00 9.87946E-01 9.14770E+00 1.28943E-01-3.02706E+01
 -1       119-4.31267E+00-9.03564E-02 2.95636E-01-9.17957E+00-2.25324E-01-3.20346E+01
 -1       120 9.53131E-04 6.26782E-01-1.08243E+00-4.04593E+00-1.47608E-01 4.54451E+01
 -1       121 3.81372E+00 2.38781E+00-2.80539E+00 5.09491E-02-7.56816E-01 1.92176E+01
 -1       122-4.29711E+00-2.11721E+00 1.76720E+00 8.11010E+00 8.11688E-01 4.84942E+01
 -1       123-4.59902E+00-2.08990E+00 3.25924E+00 8.57852E-01-5.60492E-01 1.99800E+01
 -1       124 7.98601E+00 1.68761E-01-3.10234E+00-3.31535E+00 6.47928E-01 4.97887E+01
 -1       125-5.60159E+00-2.65334E+00 2.73550E+00-4.90737E+00-4.37750E-01 1.83538E+01
 -1       126-1.94743E+00-3.48951E-01 6.50827E-01-1.41271E+00 5.87680E-01 3.61746E+01
 -1       127-8.27815E+00-8.48872E-01 1.27105E+00-5.72700E+00-7.45002E-01 3.62671E+01
 -1       128-3.23575E+00-1.94235E+00 2.67331E+00 1.41885E+00-5.10736E-01 8.17480E+00
 -1       129-6.50974E-01 6.27696E-02-1.48415E-01-7.74443E+00-4.68265E-01 3.12999E+01
 -1       130 5.07559E-01-5.55744E-01-1.00016E+00-1.60245E+00-1.11982E+00 5.44497E+01
 -1       131 1.09727E+01 8.56459E-01-1.57486E+00-1.27963E+01 1.07926E+00 3.90228E+01
 -1       132 6.12834E+00 2.26548E+00-1.53421E+00 4.75765E+00-2.53162E-01 1.89332E+01
 -1       133 1.04628E+00 7.29598E-01-3.75340E-01-1.41868E+00-3.13364E-01 3.47077E+01
 -1       134 2.26882E+00 2.08267E+00-2.13775E+00-1.83046E+00-6.91736E-01 3.06809E+01
 -1       135 2.70743E+00 2.31464E+00-3.03918E+00-1.36076E+00-6.04382E-01 8.03293E+00
 -1       136 2.73784E+00-2.72773E-01-2.71774E+00 1.39077E+00-2.15404E+00 1.38832E+01
 -1       137 2.03592E+00 4.73099E-01-3.61871E-01-2.56290E-01-2.08006E-01 2.74663E+01
 -1       138-8.40013E+00-1.02855E+00 1.68574E+00 5.82858E+00 1.34256E+00 5.04846E+01
 -1       139-2.20009E+00 2.09503E-01 8.70443E-01 1.75939E+00 7.25564E-01 5.61993E+01
 -1       140-2.81669E+00-8.83157E-01 4.39741E-01 7.87926E-01-7.26635E-01 4.83951E+01
 -1       141-8.12138E+00-1.46838E+00 4.85261E-01 1.36080E+01 1.12127E+00 4.12311E+01
 -1       142 2.77352E+00-1.41746E+00 1.91171E-01 4.48914E+00-6.35202E-01 3.43587E+01
 -1       143-3.43924E+00 7.31136E-01 2.87440E+00-1.39552E+00-2.70482E+00 1.48804E+01
 -1       144 1.03009E+01 7.11765E-01-2.05969E+00-5.45832E-01 1.39207E+00 5.29867E+01
 -1       145-2.36074E+00 9.57073E-01 3.68094E-01 4.83822E+01-5.37544E-02-5.35633E-01
 -1       146 3.81507E+00-2.16010E+00 1.80981E+00 4.56243E+01-4.99481E-01 8.79564E+00
 -1       147-3.33396E+00 2.28537E+00-1.60035E+00 1.98203E+01 4.43676E-01 1.71377E+00
 -1       148 7.96979E+00-3.22673E+00 2.22544E-01 1.99823E+01 7.48045E-01 3.57688E-02
 -1       149-3.64772E+00 1.86832E+00-2.54501E+00 5.18779E+01-5.27059E-01-4.94521E-01
 -1       150-7.33084E+00 1.60961E+00-2.16772E+00 5.28152E+01-1.62102E+00 1.03710E+00
 -1       151-1.09484E+01 1.15875E+00-1.65003E+00 3.97653E+01-7.16875E-01-1.31920E+01
 -1       152 1.77340E+00 1.41774E-01-5.67737E-01 5.25812E+01-1.44214E+00 2.76070E+00
 -1       153 1.11454E+01-1.80951E+00 8.32806E-01 4.98885E+01-1.09732E+00 5.00856E+00
 -1       154-1.47190E+00 1.01537E+00 3.05166E-01 4.69812E+01-2.49632E-01 2.00526E+00
 -1       155-1.79442E+00 3.53889E-01 8.46329E-01 5.39701E+01-6.84928E-02 5.67634E+00
 -1       156 6.72122E+00-1.18458E+00 1.77959E+00 4.01325E+01-9.61160E-01 1.40681E+01
 -1       157 5.02167E+00 2.56196E-01-2.44378E+00 3.29058E+01 7.25212E-01-4.61717E+00
 -1       158 5.03488E+00-7.53566E-01 1.56429E-01 3.15681E+01-8.96173E-02 8.80795E+00
 -1       159-6.50117E+00 1.44132E+00-3.03166E-01 3.44024E+01-3.14191E-01 5.15530E-01
 -1       160-4.08364E+00 1.17312E+00-7.84991E-01 2.07179E+01 6.48054E-02 4.07575E+00
 -1       161-5.20942E+00 1.12666E+00-3.54331E-01 3.35204E+01 1.36040E+00-1.69587E+00
 -1       162-2.96697E+00 2.86664E+00-2.00383E+00 8.86407E+00 4.01321E-01-5.25256E-01
 -1       163-1.52097E+00 1.98224E+00 6.94714E-02 1.41838E+01 1.12560E+00 1.54674E+00
 -1       164-1.48280E+00 2.80471E-02 3.04634E-01 2.81497E+01 1.37292E+00 1.53143E+00
 -1       165 4.45121E+00-2.99865E+00-5.80522E-01 1.54280E+01 6.40813E-01 8.06497E-01
 -1       166 4.03888E+00-1.06074E+00 2.95243E-01 3.79907E+01 1.70788E+00 5.63841E-01
 -1       167 4.51528E+00-1.10221E+00 3.67668E-01 1.84252E+01 7.89699E-01-6.33264E+00
 -1       168 1.22396E-01-4.90941E-01 1.59386E+00 3.69227E+01 3.62500E-01-2.39900E+00
 -1       169 4.57485E+00-3.39864E+00 1.46541E+00 7.71978E+00 5.21837E-01 9.88363E-01
 -1       170 1.85117E+00 2.19409E-01-8.94108E-01-4.53382E+01 9.44303E-03 3.27543E+00
 -1       171 5.10895E+00-3.04782E+00 2.48849E+00-2.25093E+01 5.32900E-01-8.06841E-01
 -1       172-3.37181E+00 2.71919E+00-2.36339E+00-1.91723E+01 8.93089E-01-2.74120E-02
 -1       173-7.76594E+00 3.06032E+00-1.71334E-01-4.98451E+01-5.48616E-01 3.55132E+00
 -1       174 2.66566E+00-8.17655E-01 2.15277E+00-5.14920E+01-4.17497E-01 3.74704E-01
 -1       175 8.65946E-01 8.53597E-01 5.29513E-02-3.14529E+01 1.60320E-01 8.36600E+00
 -1       176-1.10408E+01 1.52597E+00-9.70204E-01-3.90619E+01-1.07629E+00 1.28928E+01
 -1       177-6.52708E-01 3.44604E-01 3.44841E-01-5.40658E+01 1.32227E+00 1.00057E+00
 -1       178 9.13519E+00-6.71857E-01-4.72385E-01-3.52441E+01-2.35406E-01 4.41191E+00
 -1       179 3.13998E+00-1.83877E+00 1.24100E+00-1.99790E+01 2.25618E-01 3.88563E+00
 -1       180 3.39220E+00-3.11841E+00 2.51020E+00-9.70894E+00 8.90545E-01-6.03503E-01
 -1       181 3.25201E+00-1.25698E+00 7.74630E-01-3.47153E+01-5.54547E-01-2.77568E+00
 -1       182-6.11301E+00 1.45575E+00-2.28905E+00-1.90081E+01 2.78826E-01-4.74161E+00
 -1       183-9.11506E-01 1.73235E+00-2.35324E+00-3.07867E+01 6.22294E-01 2.04223E+00
 -1       184-1.03075E+00-8.13062E-03-1.22727E+00-3.51619E+01 1.04129E-01 1.81733E+00
 -1       185-2.46598E+00 2.96615E+00-2.24431E+00-8.01046E+00 6.68833E-01 1.38585E+00
 -1       186-2.16429E+00 2.99367E+00 2.07960E-01-1.33574E+01 2.10653E+00-1.17810E+00
 -1       187-4.79977E-01 2.25491E-01-9.29778E-01-2.63866E+01 5.39067E-01-1.81851E-01
 -1       188-1.02987E+01 1.90755E+00-6.75602E-01-5.29018E+01-1.28586E+00 5.16887E-01
 -1       189 1.28091E+00-1.12106E+00 4.50549E-01-5.33553E+01-7.49965E-01 1.88497E+00
 -1       190-4.72247E+00-2.30337E-03 2.10388E+00-3.30772E+01 4.76651E-01-3.87226E+00
 -1       191 2.84531E+00 8.38659E-02-1.95037E-01-5.18982E+01 2.44590E-02 6.73803E+00
 -1       192 1.02052E+01-4.60088E-01 1.62837E+00-4.00934E+01-4.02944E-01-1.26224E+01
 -1       193 7.37684E+00-1.29047E+00 1.85158E+00-5.26297E+01-1.54061E+00 1.77268E+00
 -1       194 1.98886E+00-3.61498E+00 6.84857E-01-1.60074E+01 8.35855E-01-2.58656E-01
 -1       195-3.68442E-01-3.47221E-01 4.96118E-01-1.05191E+01 8.83225E-02 1.06515E+01
 -1       196 2.25633E-01-9.75093E-01 1.07836E+00 7.26377E+00 1.18449E-01-6.62113E+00
 -1       197 9.53819E-01 2.24328E+00-2.67850E+00 1.33498E+01 2.38245E-01-3.49743E+01
 -1       198 9.28440E-01 1.28263E+00-1.45368E+00 9.98599E+00 6.56112E-01-3.55260E+01
 -1       199 4.26624E+00-1.79283E+00 1.46382E+00 5.91221E+00 6.77486E-03-2.41567E+01
 -1       200-4.23762E-01-3.28779E-01 1.87367E-01 2.87784E+00 1.47410E-01-2.65039E+01
 -1       201-1.65921E+00 7.32353E-01-9.17325E-02 1.47646E+01 2.45133E-01-1.06983E+01
 -1       202-3.07665E-01 1.22343E+00-1.98547E+00 2.06233E+01 1.24896E-01 7.82637E+00
 -1       203 3.54006E-01 2.90598E+00-2.92982E+00 9.23575E+00-1.53535E-01 9.46370E+00
 -1       204-8.11344E-01 1.18813E+00-1.56986E+00 5.42302E+00-1.10961E+00 6.51298E+00
 -1       205-1.62314E+00-8.54684E-01-3.95898E-01 1.44469E+01-8.22282E-01-7.86695E-01
 -1       206 4.54377E-01 9.88267E-02 3.43305E-01 2.69656E+01 1.61851E-02-2.63856E+00
 -1       207 5.10592E-01 4.89979E-01-2.67007E-01 1.36365E+00 4.30487E-01 6.35722E+00
 -1       208 7.02066E-01 2.35785E+00-2.97066E+00 1.06083E+00-4.01132E-01 7.00883E+00
 -1       209-1.73232E-01-1.02775E+00 1.58728E+00-1.87335E+01 8.08265E-01 2.11269E+00
 -1       210 1.34657E+00-3.21097E+00 1.95611E+00-8.45999E+00 1.08537E+00 1.88285E+00
 -1       211-6.94894E-01 1.54355E-01-3.86874E-01-6.35156E+00-3.10533E-01-1.59719E+00
 -1       212-5.05552E-01 2.92791E+00-2.29674E+00-6.95780E+00 4.42594E-01-1.08889E+00
 -1       213-1.77180E+00-1.74088E-01-6.21665E-01-2.86957E+01 2.20611E-01-1.60992E+01
 -1       214 1.91400E-01-8.72289E-01 1.38991E+00-2.74584E+01 1.77188E-01-2.41392E+01
 -1       215-3.10167E+00 3.11097E+00-2.65860E+00 3.65533E+01-1.90812E-01-1.46816E+01
 -1       216-2.45996E+00 1.71776E+00-1.13673E+00 3.65372E+01-4.68453E-01-1.04370E+01
 -1       217-8.84691E-01 1.14522E-01-1.71393E-01 5.91728E-01-9.53839E-01 5.70889E+00
 -1       218-5.60740E-01-1.97971E+00 2.21608E+00 6.81829E-01-5.47076E-02 8.23899E+00
 -1       219 4.28561E-01 7.75882E-01-9.90040E-01 1.06552E-01-1.20734E-01 1.57939E+01
 -1       220-1.29989E+00 6.49909E-01-1.88526E+00 2.42974E+00-1.06017E+00 1.33489E+01
 -1       221-7.73698E-02-1.00837E+00 1.13435E+00 3.61471E+00 3.35261E-03-3.63283E+00
 -1       222 2.90926E-01 1.11491E-01-5.06074E-01-1.62282E+01 1.24908E-01 7.11222E-02
 -1       223 5.42650E-01 1.55079E+00-1.08690E+00-6.60991E+00 1.30542E+00-5.30294E+00
 -1       224 1.39536E+00 1.75243E+00-8.96008E-01-1.32926E+01 1.17714E+00-2.45969E+00
 -1       225 4.43753E-01 2.61936E-01-1.45708E+00-1.72611E+01 1.30140E-01-1.74972E+01
 -1       226-1.96240E+00-5.19245E-01 9.93687E-01-1.24218E+01-5.85596E-01-1.47959E+01
 -1       227 1.18679E+00 4.56542E-01-1.18516E+00-3.90680E+00-5.44534E-01-1.54466E+01
 -1       228-6.86599E-01-6.82850E-02 5.70391E-02-2.71624E+01-2.75190E-01 5.04293E+00
 -1       229 2.38428E-02 2.97004E-01-3.14291E-01 2.28591E+01-6.29795E-01-9.78848E-01
 -1       230 1.01849E-01-4.55553E-01 4.70912E-01 4.04508E+00 1.22750E-01-3.81126E+00
 -1       231-3.55563E+00-2.43899E+00 4.07647E+00-4.75223E+00 2.64298E-01 1.62327E+01
 -1       232-5.37941E-01-1.08310E-01 1.56720E-01-3.01253E+00-2.44263E-01 1.69799E+00
 -1       233 1.47234E+00-5.15571E-01-9.82407E-02-5.52238E+00 4.77405E-01 2.77265E+01
 -1       234-2.08570E-01 4.51703E-01-3.87879E-01 1.01136E+00 5.32965E-01-2.30420E+01
 -1       235-8.10155E-02 1.11534E+00-4.15479E-01 1.72615E+01-2.08759E-01 1.72247E+01
 -1       236-8.08798E-01 1.17585E+00-4.65427E-01 1.55600E+01 5.56576E-01 4.16259E+00
 -1       237 5.99636E-02-5.89301E-01 5.78730E-01-5.60838E+00 5.96993E-03 5.62938E+00
 -1       238-1.34123E-01-9.24467E-01 9.26744E-01-1.16618E+00 1.20546E-01 1.27133E+00
 -1       239 2.35901E+00-5.27377E+00 2.94896E+00 8.52566E+00-2.79154E-01-6.74702E-01
 -1       240-1.75519E-01-4.66045E-01 4.08230E-02 8.76359E+00 2.99199E-01-2.44809E+00
 -1       241-6.93003E-03-2.99561E+00 2.99795E+00 3.85264E+00-1.95211E-02-3.75688E+00
 -1       242 4.42830E+00-9.49332E-01 2.63573E-01 1.43894E+01 8.13586E-01-4.32762E+00
 -1       243-2.20791E+00-3.05125E+00 5.03932E+00 5.61056E-01 1.19719E-01-8.61981E+00
 -1       244-9.47152E-03-7.75164E-02 5.65397E-01 2.41710E+00-2.48309E-01-8.59371E+00
 -1       245-3.89461E+00-3.64906E-01 7.32209E-01 4.21082E+00-9.43152E-01-1.41571E+01
 -1       246 2.38548E-02-2.39724E+00 2.19183E+00 8.08742E+00-1.07527E-01-8.32443E+00
 -1       247-2.06908E-01-9.51435E-01 1.43250E+00 1.11233E+01-1.25894E-01-1.10975E+01
 -1       248 7.51459E-02 1.41333E+00-1.34189E+00-2.46876E+01 8.20916E-03 2.47884E+01
 -1       249 6.08140E+00-9.31266E-01-1.46791E+00-9.46012E+00 1.00960E-01 2.90465E+01
 -1       250-6.06920E+00 1.60324E+00 1.01852E+00-2.91188E+01 1.46858E-01 9.63694E+00
 -1       251-3.74198E-01-1.27281E+00 1.77737E+00-1.33546E+01-1.74315E-01 1.41029E+01
 -1       252 3.02744E+00 1.82886E+00-3.10043E+00-1.38292E+01 1.01162E+00 3.70445E+01
 -1       253 6.33312E-01 1.95029E-01-1.31439E-01-4.44762E+00 1.31326E+00 3.06496E+01
 -1       254 6.47201E-02 1.52106E+00-1.49973E+00-1.74120E+01 3.21028E-02 1.73782E+01
 -1       255-2.99179E+00 3.11610E+00-1.88190E+00-3.70416E+01-9.35788E-01 1.38754E+01
 -1       256-7.76498E-01 2.99788E-01-1.55069E-01-2.95371E+01-1.07713E+00 4.60076E+00
 -1       257-1.75002E+00-7.94910E-01 9.56109E-01 1.72663E+00 1.20930E+00 2.89088E+01
 -1       258 1.31762E+00 3.91055E-01 9.80224E-01 7.43927E-01 9.44665E-01-1.43110E+01
 -1       259 2.83850E+00-7.98096E-01-1.31138E-02-1.82071E+01-1.78008E+00-6.13949E+00
 -1       260-2.50663E+00-1.60529E+00 1.58665E+00 1.56456E+01 9.82814E-01 3.53731E+01
 -1       261 2.47196E+00-2.27423E+00 1.70173E+00 3.49689E+01-7.61089E-01 1.55187E+01
 -1       262-9.59211E-01 3.58229E+00-2.29562E+00 8.05728E+00 4.80485E-01 1.63496E+00
 -1       263-2.81543E-01 2.96299E+00-2.93760E+00-9.41601E+00 2.53545E-01-9.27910E+00
 -1       264 1.84641E+00-2.28049E+00 2.22461E+00-3.62736E+01-3.23817E-01-1.38129E+01
 -1       265-1.20983E+00 6.61460E-01-1.48362E+00 2.60127E+01-8.48208E-02-2.30120E+01
 -1       266-1.18742E+00-2.30222E+00 2.20932E+00-1.53599E+01 4.06129E-01-3.44688E+01
 -1       267 1.02242E+00-3.33815E+00 3.15234E+00-9.20363E+00 3.37399E-01 8.60761E+00
 -1       268 7.90275E-01-2.17478E+00 1.41813E+00 2.52535E+01-1.78533E-01 2.77429E+01
 -1       269 9.50662E-01 2.37163E+00-3.58541E+00-1.61449E+00-4.80301E-01-8.05994E+00
 -1       270-6.19034E-01 1.79763E+00-1.44485E+00 7.58863E+00 1.91192E+00 1.72834E+00
 -1       271 3.77750E+00-2.66841E+00 1.28255E+00 2.26979E+01-1.48930E-01 7.80749E+00
 -1       272-1.37501E+00-4.23696E-01 5.79624E-01 1.52080E+01 9.83440E-01 1.30300E+01
 -1       273 3.40980E-01-1.19905E+00 1.76010E+00 2.86857E+01-2.37611E-01-1.69038E+01
 -1       274 4.38301E-01 2.04621E+00-1.21834E+00-7.66752E+00-8.70218E-02-2.06707E+01
 -1       275 6.68021E-01 1.31082E+00-1.72744E+00-1.75400E+00-1.95898E+00-7.54019E+00
 -1       276-2.39913E+00-8.78428E-01 3.34314E+00-7.29516E+00 6.85147E-01-2.21331E+01
 -1       277 1.04453E+00-2.44803E+00 2.81800E+00-2.05289E+01-4.54509E-01 8.68295E+00
 -1       278 9.67788E-01-3.64648E-01 6.15693E-01 1.58289E+01-2.84078E-01 2.79744E+01
 -1       279 3.95010E+00-1.66530E+00 7.31755E-01-3.54435E+01-1.59015E-01-1.05550E+01
 -1       280-3.79582E+00-1.16855E+00 1.77445E+00 8.62744E+00 3.98115E-01 2.33445E+01
 -3
    1PSTEP                        10           1           1          
    1PGM                1.000000E+00                                  
    1PGK                6.248515E+11                                  
    1PHID                         -1                                  
    1PSUBC                         0                                  
    1PMODE                         4                                  
  100CL  104 1.25808E+05         280                     2    4MODAL      1
 -4  DISP        4    1
 -5  D1          1    2    1    0
 -5  D2          1    2    2    0
 -5  D3          1    2    3    0
 -5  ALL         1    2    0    0    1ALL
 -1         1 0.00000E+00 0.00000E+00 0.00000E+00
 -1         2 0.00000E+00 0.00000E+00 0.00000E+00
 -1         3 0.00000E+00 0.00000E+00 0.00000E+00
 -1         4 0.00000E+00 0.00000E+00 0.00000E+00
 -1         5 5.03347E+02-2.41062E-01-2.01036E-01
 -1         6 5.03629E+02 1.38385E-01 1.65277E-01
 -1         7 5.03479E+02 2.93807E-01 1.53014E-01
 -1         8 5.03431E+02 1.09099E-02 8.18438E-02
 -1         9 0.00000E+00 0.00000E+00 0.00000E+00
 -1        10 0.00000E+00 0.00000E+00 0.00000E+00
 -1        11 0.00000E+00 0.00000E+00 0.00000E+00
 -1        12 0.00000E+00 0.00000E+00 0.00000E+00
 -1        13 0.00000E+00 0.00000E+00 0.00000E+00
 -1        14 0.00000E+00 0.00000E+00 0.00000E+00
 -1        15 0.00000E+00 0.00000E+00 0.00000E+00
 -1        16 0.00000E+00 0.00000E+00 0.00000E+00
 -1        17 0.00000E+00 0.00000E+00 0.00000E+00
 -1        18 0.00000E+00 0.00000E+00 0.00000E+00
 -1        19 0.00000E+00 0.00000E+00 0.00000E+00
 -1        20 0.00000E+00 0.00000E+00 0.00000E+00
 -1        21 5.04101E+02-2.68942E-02 9.86153E-02
 -1        22 5.03267E+02-8.41540E-02-7.94586E-02
 -1        23 5.03308E+02 2.13823E-01 1.54236E-01
 -1        24 5.04124E+02 1.47107E-01-1.66957E-02
 -1        25 5.03290E+02-9.89380E-02-6.25524E-02
 -1        26 5.03261E+02 2.55660E-01 2.31395E-01
 -1        27 5.02871E+02 2.86487E-02 6.11593E-02
 -1        28 5.02908E+02 1.41002E-01 2.96581E-01
 -1        29 5.03009E+02-5.02095E-02-1.04319E-01
 -1        30 5.02960E+02 2.37068E-01-2.22062E-01
 -1        31 5.03163E+02 3.33273E-01-3.43466E-02
 -1        32 5.02794E+02-7.90271E-02-5.68954E-02
 -1        33 3.56485E+02-1.53646E-01-4.92478E-01
 -1        34 1.92630E+02 6.77353E-02 1.36776E-01
 -1        35 4.64922E+02 2.01011E-01 2.20520E-01
 -1        36 3.56083E+02-2.92365E-01 4.70618E-01
 -1        37 1.92499E+02 1.78277E-01-2.72728E-01
 -1        38 4.65085E+02 2.46207E-01-1.65754E-02
 -1        39 3.56006E+02 3.85964E-01-3.00000E-01
 -1        40 1.92484E+02-3.05579E-01 2.78888E-01
 -1        41 4.64944E+02-1.62424E-02 2.24502E-01
 -1        42 3.55930E+02 2.94038E-01 4.37605E-01
 -1        43 1.92495E+02-3.30885E-01-3.19462E-01
 -1        44 4.64907E+02-2.72139E-02-1.29376E-01
 -1        45 0.00000E+00 0.00000E+00 0.00000E+00
 -1        46 0.00000E+00 0.00000E+00 0.00000E+00
 -1        47 0.00000E+00 0.00000E+00 0.00000E+00
 -1        48 0.00000E+00 0.00000E+00 0.00000E+00
 -1        49 0.00000E+00 0.00000E+00 0.00000E+00
 -1        50 0.00000E+00 0.00000E+00 0.00000E+00
 -1        51 0.00000E+00 0.00000E+00 0.00000E+00
 -1        52 0.00000E+00 0.00000E+00 0.00000E+00
 -1        53 0.00000E+00 0.00000E+00 0.00000E+00
 -1        54 0.00000E+00 0.00000E+00 0.00000E+00
 -1        55 0.00000E+00 0.00000E+00 0.00000E+00
 -1        56 0.00000E+00 0.00000E+00 0.00000E+00
 -1        57 0.00000E+00 0.00000E+00 0.00000E+00
 -1        58 0.00000E+00 0.00000E+00 0.00000E+00
 -1        59 0.00000E+00 0.00000E+00 0.00000E+00
 -1        60 0.00000E+00 0.00000E+00 0.00000E+00
 -1        61 0.00000E+00 0.00000E+00 0.00000E+00
 -1        62 0.00000E+00 0.00000E+00 0.00000E+00
 -1        63 0.00000E+00 0.00000E+00 0.00000E+00
 -1        64 0.00000E+00 0.00000E+00 0.00000E+00
 -1        65 0.00000E+00 0.00000E+00 0.00000E+00
 -1        66 0.00000E+00 0.00000E+00 0.00000E+00
 -1        67 0.00000E+00 0.00000E+00 0.00000E+00
 -1        68 0.00000E+00 0.00000E+00 0.00000E+00
 -1        69 0.00000E+00 0.00000E+00 0.00000E+00
 -1        70 5.05129E+02 2.80473E-01 2.17288E-01
 -1        71 5.03229E+02 1.40908E-01 1.63273E-01
 -1        72 5.03270E+02-5.38881E-02 9.83903E-02
 -1        73 5.03134E+02 2.68469E-01 1.16913E-01
 -1        74 5.03548E+02-1.58064E-02-1.60992E-02
 -1        75 5.02778E+02 6.55837E-02-3.92809E-02
 -1        76 5.03161E+02-6.40202E-02 2.16203E-02
 -1        77 5.02925E+02 6.93565E-02-2.01266E-02
 -1        78 5.03110E+02 2.52477E-01 1.36702E-01
 -1        79 5.03717E+02 1.21725E-01 2.38154E-01
 -1        80 5.03340E+02 2.36132E-01 1.00520E-01
 -1        81 5.03333E+02 2.40955E-01 1.16730E-01
 -1        82 5.03215E+02 2.21875E-01 2.11928E-01
 -1        83 5.02869E+02 1.73309E-01 1.52921E-01
 -1        84 5.03714E+02 3.58700E-01 2.95863E-02
 -1        85 5.03794E+02 1.29850E-01 2.36965E-02
 -1        86 5.03596E+02 3.66083E-02-1.90032E-03
 -1        87 5.03342E+02-1.20623E-01-9.55273E-02
 -1        88 5.03577E+02-9.82237E-03 1.63895E-02
 -1        89 5.03701E+02 4.72362E-02 1.65053E-02
 -1        90 5.03805E+02 3.96522E-02 7.45851E-02
 -1        91 5.02994E+02 2.68423E-01-1.54968E-03
 -1        92 5.03352E+02 2.02469E-01 9.21328E-02
 -1        93 5.03773E+02 8.87650E-02 2.80821E-01
 -1        94 5.03363E+02 1.15753E-01 1.62432E-01
 -1        95 3.57220E+02-4.39842E-01-9.85606E-02
 -1        96 4.65162E+02 1.39105E-01 1.27027E-01
 -1        97 4.64985E+02 7.59422E-02 3.62364E-02
 -1        98 1.92474E+02-5.12704E-01-1.57832E-01
 -1        99 1.92571E+02-3.13442E-01-1.77905E-02
 -1       100 9.81470E+01-1.73314E-01-5.26224E-02
 -1       101 9.83443E+01-6.84058E-02-3.54765E-03
 -1       102 1.91010E+02-1.14395E-01 4.47884E-02
 -1       103 2.79372E+02-4.74384E-01 5.43028E-02
 -1       104 2.79858E+02-4.11763E-01-5.67030E-03
 -1       105 9.80631E+01-2.58510E-02 1.81813E-02
 -1       106 9.82170E+01-6.82432E-02-5.67697E-02
 -1       107 4.19204E+02-3.13981E-02 8.74222E-02
 -1       108 4.18653E+02 5.32355E-02 1.24982E-01
 -1       109 3.55995E+02-1.86780E-01 1.13648E-01
 -1       110 4.65131E+02 1.52691E-01 1.69567E-02
 -1       111 4.93910E+02 1.04681E-01 8.65878E-02
 -1       112 4.93676E+02 1.79564E-01 1.32229E-01
 -1       113 4.18789E+02 5.93553E-02-1.29247E-01
 -1       114 4.93848E+02-3.19102E-02 6.82629E-02
 -1       115 3.55507E+02 2.57174E-02-5.08910E-02
 -1       116 4.18515E+02 1.07933E-01 1.51485E-02
 -1       117 4.93538E+02-8.88337E-03-1.00865E-02
 -1       118 2.80151E+02-1.82682E-01-3.07815E-01
 -1       119 2.79683E+02-1.82932E-01 1.60464E-01
 -1       120 3.55846E+02 3.10963E-01 2.87894E-02
 -1       121 4.65108E+02 1.10486E-02 4.94217E-02
 -1       122 1.92893E+02-1.48611E-01-2.00536E-02
 -1       123 4.65292E+02 2.82597E-02-4.60890E-03
 -1       124 1.92718E+02-9.44344E-02 1.53898E-02
 -1       125 4.18261E+02 1.31532E-01 1.28361E-01
 -1       126 4.18536E+02 1.82812E-01 9.21285E-02
 -1       127 3.55824E+02 7.36480E-02 9.15899E-02
 -1       128 4.93599E+02 2.67289E-02-8.32148E-03
 -1       129 2.79507E+02-6.55354E-02 7.04560E-02
 -1       130 2.79354E+02-1.46545E-01-1.35696E-02
 -1       131 9.82414E+01-5.24297E-02-4.58703E-02
 -1       132 4.18404E+02 7.47737E-02-1.77151E-02
 -1       133 3.55849E+02 1.62764E-01-6.42119E-02
 -1       134 4.18517E+02 9.57203E-02-4.17970E-02
 -1       135 4.93536E+02 1.24722E-01 1.40547E-01
 -1       136 4.93231E+02-4.47903E-02 1.41731E-01
 -1       137 4.65184E+02-1.12041E-01 3.70273E-02
 -1       138 9.84246E+01-6.92600E-02-4.31421E-02
 -1       139 1.93054E+02-3.31982E-01 3.78664E-03
 -1       140 2.79288E+02-7.88044E-02 1.54805E-02
 -1       141 9.82885E+01-9.80999E-02 6.03507E-02
 -1       142 2.79310E+02-4.22797E-02-4.97911E-02
 -1       143 4.93326E+02-1.06144E-01-4.65929E-02
 -1       144 9.84878E+01 5.36013E-02 4.26091E-02
 -1       145 3.57031E+02-4.55218E-02-4.64189E-01
 -1       146 1.92334E+02 2.88692E-02-1.40785E-01
 -1       147 4.65126E+02 1.25564E-01 1.10006E-01
 -1       148 4.65086E+02 2.35349E-02 9.20480E-02
 -1       149 1.92704E+02-1.46971E-01-2.87969E-01
 -1       150 9.83985E+01-3.87005E-02-7.26681E-02
 -1       151 9.83351E+01-9.55673E-02-5.74036E-02
 -1       152 1.90908E+02 5.46807E-02-9.03366E-02
 -1       153 9.80122E+01 2.41315E-02 4.12045E-02
 -1       154 2.79659E+02 2.31470E-02-3.64300E-01
 -1       155 2.79331E+02-5.96120E-02-4.59735E-01
 -1       156 9.81191E+01-4.78069E-02 3.12506E-02
 -1       157 2.79360E+02-1.38300E-01-1.79306E-01
 -1       158 2.79583E+02 1.00932E-01-1.36136E-01
 -1       159 3.55938E+02 5.80935E-02-2.31957E-01
 -1       160 4.18595E+02 7.71719E-02 2.42852E-02
 -1       161 4.19142E+02 7.71598E-02-6.35290E-02
 -1       162 4.93584E+02 1.88648E-01 1.69265E-01
 -1       163 4.93900E+02 1.25372E-01 8.89484E-02
 -1       164 4.65137E+02 3.20686E-02 1.28184E-01
 -1       165 4.93893E+02 7.76717E-02-2.48345E-02
 -1       166 4.18875E+02-8.75101E-02 3.44664E-02
 -1       167 4.18662E+02 8.43996E-02 5.85041E-02
 -1       168 3.55881E+02-2.48319E-02-2.34474E-01
 -1       169 4.93554E+02-4.96734E-02 2.22514E-02
 -1       170 3.56266E+02-1.19450E-02 5.00616E-01
 -1       171 4.64915E+02 9.89461E-02-3.89115E-02
 -1       172 4.65333E+02 4.32973E-02 9.69860E-03
 -1       173 1.92559E+02 4.30002E-02-1.03003E-02
 -1       174 1.92663E+02-1.59283E-01 7.21301E-02
 -1       175 2.79471E+02 7.26212E-03 4.36964E-02
 -1       176 9.82095E+01-1.93509E-02-5.40305E-02
 -1       177 2.79225E+02-9.53565E-02 6.39679E-02
 -1       178 3.55832E+02 2.42531E-02 3.34505E-01
 -1       179 4.18575E+02 9.79041E-02 7.44484E-02
 -1       180 4.93414E+02 6.02569E-02-4.37755E-02
 -1       181 4.18942E+02 9.00224E-02 1.59316E-01
 -1       182 4.18516E+02-9.24491E-03 1.34119E-01
 -1       183 4.18800E+02-6.64452E-02 1.81060E-01
 -1       184 3.55917E+02-6.65390E-02 2.95140E-01
 -1       185 4.93732E+02 1.60712E-01 6.04094E-02
 -1       186 4.93524E+02 1.46136E-01-1.58822E-01
 -1       187 4.65645E+02 4.04263E-03-1.18164E-01
 -1       188 9.82864E+01 1.59273E-01 7.46929E-02
 -1       189 1.91981E+02 9.17457E-02-2.47408E-02
 -1       190 2.79271E+02-1.17930E-01 8.02586E-02
 -1       191 2.79045E+02-1.34597E-01 2.67482E-01
 -1       192 9.82468E+01-3.47961E-02-7.76540E-02
 -1       193 9.85723E+01 1.26538E-02-7.40922E-02
 -1       194 4.93226E+02 4.99804E-02-1.68810E-01
 -1       195 2.79788E+02-1.26893E-02 1.24624E-01
 -1       196 4.19509E+02-5.97330E-02-5.24067E-02
 -1       197 9.88596E+01-2.94893E-01-1.52175E-01
 -1       198 1.92646E+02-2.96077E-01-3.78113E-02
 -1       199 3.18273E+02-7.98453E-02 2.67978E-02
 -1       200 3.89746E+02-8.06286E-02-7.79462E-02
 -1       201 2.37247E+02-1.86418E-01-1.56881E-01
 -1       202 4.18447E+02 2.72052E-02-2.89350E-02
 -1       203 4.64926E+02 6.24582E-02 1.10026E-01
 -1       204 4.43778E+02-2.29055E-02-9.05184E-03
 -1       205 4.44087E+02 4.30379E-02 2.12068E-02
 -1       206 3.89702E+02-6.00921E-02-1.18087E-01
 -1       207 4.93491E+02 3.00050E-02 1.30093E-01
 -1       208 4.93412E+02 3.36862E-02 1.45563E-01
 -1       209 4.64897E+02 7.35455E-02-9.31550E-02
 -1       210 4.93232E+02 2.65806E-02-9.43675E-02
 -1       211 4.93584E+02 1.34212E-01-4.12950E-02
 -1       212 4.93555E+02 1.53167E-01-3.90846E-02
 -1       213 2.79377E+02 1.22570E-02 1.42578E-01
 -1       214 1.92645E+02-1.13493E-01-5.80716E-02
 -1       215 9.86024E+01-5.05396E-02-9.49422E-02
 -1       216 1.92748E+02-8.14970E-02-3.61298E-01
 -1       217 4.93497E+02-1.62679E-02-2.73198E-02
 -1       218 4.93455E+02-7.21786E-02-3.83891E-02
 -1       219 4.64392E+02-2.47391E-02-2.36313E-02
 -1       220 3.88919E+02-8.96171E-02-1.97535E-02
 -1       221 4.82222E+02 1.01703E-01 8.78573E-02
 -1       222 4.64592E+02-4.13132E-02-6.45707E-02
 -1       223 4.43820E+02-1.26627E-02-8.50557E-04
 -1       224 3.88961E+02-5.24430E-02 7.38152E-03
 -1       225 3.55732E+02-1.06794E-01 5.96708E-02
 -1       226 2.37020E+02-1.05995E-01 8.08910E-02
 -1       227 3.19036E+02-1.28020E-01-1.18494E-01
 -1       228 3.19437E+02-4.56268E-02 2.88678E-01
 -1       229 1.92992E+02 1.36071E-01-2.30661E-01
 -1       230 2.37353E+02 3.84798E-02 4.67938E-02
 -1       231 3.89259E+02 9.65762E-02 1.26734E-01
 -1       232 4.43416E+02-7.65631E-02-4.63987E-02
 -1       233 3.19352E+02 5.52719E-02 3.73286E-02
 -1       234 1.93017E+02-2.43100E-01 1.58737E-01
 -1       235 3.55737E+02-4.82953E-02-1.12641E-01
 -1       236 3.19039E+02-1.74251E-01-1.21243E-01
 -1       237 1.46934E+02 1.69303E-01 1.13471E-01
 -1       238 3.55879E+02-1.56229E-01-8.55776E-02
 -1       239 4.93693E+02 4.01469E-03-2.16659E-03
 -1       240 4.81899E+02 4.56899E-02-5.74375E-03
 -1       241 4.82160E+02-1.54294E-02-2.45148E-02
 -1       242 4.44083E+02-4.38776E-02 3.94128E-02
 -1       243 4.93669E+02-1.57146E-02 1.06903E-02
 -1       244 4.81892E+02 3.53502E-03 2.81761E-02
 -1       245 4.44046E+02 5.24657E-02-4.60409E-02
 -1       246 4.64915E+02 9.00542E-02 1.15283E-01
 -1       247 3.88626E+02 7.33734E-02 6.78250E-02
 -1       248 1.92572E+02-9.45300E-02-6.42562E-02
 -1       249 2.37213E+02-1.45469E-01 4.73262E-02
 -1       250 2.37108E+02-3.81179E-02 1.69938E-03
 -1       251 3.19385E+02-2.41116E-02 9.01990E-02
 -1       252 9.83074E+01 3.65843E-02 1.68904E-02
 -1       253 1.46107E+02-2.21895E-02 2.81568E-02
 -1       254 1.45616E+02 9.46732E-02 1.03968E-01
 -1       255 9.82459E+01 3.82862E-02 4.31794E-02
 -1       256 1.45823E+02 1.88079E-02 4.22253E-02
 -1       257 2.37189E+02-7.08850E-02-3.23668E-02
 -1       258 4.44096E+02 4.40907E-02 5.08930E-02
 -1       259 1.46533E+02-1.68340E-03 7.51501E-03
 -1       260 9.80760E+01-7.90617E-02 2.38584E-02
 -1       261 9.79724E+01-4.35433E-02 2.32108E-02
 -1       262 4.93525E+02 1.00225E-01 1.67860E-01
 -1       263 4.65025E+02 1.27398E-01 6.51953E-02
 -1       264 9.86298E+01-3.10048E-02-4.32255E-02
 -1       265 1.92659E+02-2.12026E-01-1.53052E-01
 -1       266 9.84574E+01-1.79988E-01-4.46572E-02
 -1       267 4.64865E+02 6.38651E-02-3.91506E-02
 -1       268 1.92627E+02-1.04423E-01-1.43467E-02
 -1       269 4.93594E+02 1.76554E-01 4.73232E-02
 -1       270 4.93680E+02 9.80844E-02 1.26663E-01
 -1       271 9.84008E+01 1.29117E-02-7.52497E-02
 -1       272 2.37054E+02 1.09175E-02-8.08672E-02
 -1       273 2.79217E+02 6.44520E-03-2.14135E-01
 -1       274 4.18474E+02-3.02839E-03 7.24942E-02
 -1       275 4.93722E+02 1.40552E-01 5.49571E-02
 -1       276 9.85836E+01-1.34616E-01-2.72368E-02
 -1       277 4.18536E+02 7.43048E-02 1.33038E-01
 -1       278 2.79540E+02-5.50344E-02-1.77209E-02
 -1       279 1.92513E+02-1.10418E-01 3.60188E-02
 -1       280 9.82672E+01-2.95289E-02-2.74905E-02
 -3
    1PSTEP                        11           1           1          
    1PGM                1.000000E+00                                  
    1PGK                6.248515E+11                                  
    1PHID                         -1                                  
    1PSUBC                         0                                  
    1PMODE                         4                                  
  100CL  104 1.25808E+05         280                     2    4MODAL      1
 -4  STRESS      6    1
 -5  SXX         1    4    1    1
 -5  SYY         1    4    2    2
 -5  SZZ         1    4    3    3
 -5  SXY         1    4    1    2
 -5  SYZ         1    4    2    3
 -5  SZX         1    4    3    1
 -1         1 1.61627E+07-9.49928E+03-1.25590E+04-6.53273E+04-7.71390E+03-6.63762E+04
 -1         2 1.61576E+07-9.85639E+03-1.31640E+04-6.02390E+04 7.63365E+03 5.00355E+04
 -1         3 1.61512E+07-1.19177E+04-8.96964E+03 5.38207E+04 9.88325E+03-5.14479E+04
 -1         4 1.61562E+07-1.37164E+04-1.32465E+04 5.56831E+04-1.34449E+04 5.32943E+04
 -1         5 9.88740E+04-2.53350E+03-4.69802E+03 1.09041E+03 4.23083E+03-8.80193E+02
 -1         6 1.08837E+05 5.02436E+03-5.76743E+03 1.01567E+04-4.81754E+03 1.15983E+03
 -1         7 1.06373E+05-5.21749E+03 3.12363E+03 1.23858E+03-4.43532E+03 7.96588E+03
 -1         8 1.06905E+05 3.10707E+03 4.85506E+03-2.73253E+03-5.66256E+02-4.21911E+03
 -1         9 1.61398E+07-3.30590E+03-7.08354E+02 2.09337E+04-2.25523E+02-3.20187E+03
 -1        10 1.60405E+07 1.52468E-01-2.14968E-02 1.17054E+03 3.13796E-02 1.81971E+03
 -1        11 1.59990E+07 1.16467E-01 3.28317E-02 5.01010E+03 2.03948E-02-2.37545E+03
 -1        12 1.61361E+07 1.00649E+03 7.21730E+02-4.34397E+03 2.98838E+03 2.11530E+04
 -1        13 1.60609E+07-2.49100E-02 2.62005E-02-4.86256E+03-3.92577E-03 1.11301E+03
 -1        14 1.59941E+07 3.15120E-02 1.14037E-02-3.04881E+03 1.60685E-02 1.14278E+04
 -1        15 1.62716E+07-1.17597E+04 5.13775E+03 3.79835E+04 4.56994E+03 4.34239E+03
 -1        16 1.60425E+07 4.04598E-03 4.53342E-02-7.44441E+03 3.65397E-04 2.17879E+03
 -1        17 1.60591E+07 3.15377E-02 3.87577E-02 3.87106E+03 3.13360E-02-8.76443E+02
 -1        18 1.62599E+07 6.07343E+03-2.74309E+03-1.47350E+04 8.98935E+03-8.22256E+03
 -1        19 1.60779E+07-2.07850E-02 2.86021E-02 4.59989E+03-9.51188E-03-1.50248E+04
 -1        20 1.60345E+07 7.82449E-02 2.87777E-02 9.47377E+03 1.43181E-02 2.06498E+03
 -1        21 1.57880E+05-5.98849E+03 7.10599E+03-1.64307E+04 5.71583E+03 8.64970E+02
 -1        22 3.76774E+04 4.57610E+03 1.19860E+04-4.52574E+03 7.00138E+03 3.47583E+03
 -1        23 3.76657E+04 9.71586E+02 2.66649E+03-9.04107E+03-4.76870E+02-4.25214E+03
 -1        24 1.56920E+05 1.21852E+04-6.96964E+03 7.47990E+02 5.92467E+03-1.66890E+04
 -1        25 4.05439E+04 1.55267E+04 4.41715E+03 4.43879E+03 7.39197E+03-4.99960E+03
 -1        26 3.84890E+04 5.86800E+03 7.56442E+02-3.71880E+03 4.10810E+02-9.54228E+03
 -1        27 8.26567E+04-2.39617E+04-2.85220E+04 2.26663E+04-3.09987E+03 4.44590E+03
 -1        28 4.49484E+04-6.29331E+03-3.67418E+03 1.00380E+04-1.80465E+03-4.76292E+03
 -1        29 4.87339E+04-1.16160E+04 8.27347E+02 1.48205E+04-2.02410E+03 9.92307E+03
 -1        30 6.83728E+04-2.42360E+04-3.02410E+04-2.73348E+03-5.71887E+02 3.46972E+04
 -1        31 3.52829E+04 3.94727E+03-9.19826E+03-2.02751E+03-5.61095E+03 1.07031E+04
 -1        32 3.34844E+04-9.04626E+03-4.01502E+03 3.19048E+03 2.43488E+03 1.50330E+04
 -1        33 1.14017E+07 3.57710E+03 2.14447E+04-1.89250E+04 2.49913E+04-2.87223E+03
 -1        34 1.42592E+07-3.03528E+04-4.72281E+04-3.57810E+04-1.88277E+04 1.48845E+04
 -1        35 5.87443E+06-1.26999E+04-9.63158E+03-1.83072E+04-4.29322E+03-1.96892E+04
 -1        36 1.14793E+07 1.02631E+04 1.28177E+04-2.60339E+03-1.44098E+04-1.78127E+04
 -1        37 1.42432E+07-2.85230E+04-4.28259E+04-3.24625E+04 2.57000E+04 1.82902E+03
 -1        38 5.90177E+06-1.24627E+04-8.20771E+03-2.58531E+04 7.33955E+03 1.50470E+04
 -1        39 1.14746E+07 1.52386E+04 9.36860E+03-2.02606E+04-1.30118E+04-7.44006E+02
 -1        40 1.42401E+07-3.96443E+04-2.93281E+04 3.77378E+03 3.05114E+04-3.26784E+04
 -1        41 5.89885E+06-7.89387E+03-1.43413E+04 1.40723E+04 7.15827E+03-2.52107E+04
 -1        42 1.14226E+07 1.32385E+04 1.53602E+04-1.03208E+04 1.37563E+04-1.07227E+03
 -1        43 1.42370E+07-3.58056E+04-3.63121E+04 1.20347E+04-3.13202E+04 1.58119E+04
 -1        44 5.89997E+06-9.54629E+03-1.94972E+04 1.15908E+04-1.15800E+04 3.55833E+04
 -1        45 1.64827E+07 8.54515E+03 5.45001E+03-4.42166E+04 1.42767E+03-3.16348E+04
 -1        46 1.62965E+07 4.25073E+03-2.93197E+03 4.19372E+04 4.36954E+03-1.08484E+04
 -1        47 1.65638E+07 1.05195E+04 6.34084E+03 7.53886E+04-2.55207E+03 6.98743E+04
 -1        48 1.60873E+07-2.32016E+02-6.97924E+01-2.77470E+03-2.76566E+03-6.12486E+03
 -1        49 1.59585E+07 4.72127E+02-1.57518E+03-8.37289E+03-5.51573E+02 6.02294E+03
 -1        50 1.60746E+07 2.80937E+03-1.71765E+03-1.02286E+03 5.45813E+02-7.89498E+03
 -1        51 1.60375E+07 8.20552E-02 3.39942E-02-3.92944E+03 3.70194E-02-1.40647E+03
 -1        52 1.63081E+07 6.93480E-02-6.75001E+03-3.76878E+03 1.73444E+03-5.58657E+04
 -1        53 1.62595E+07 8.76341E+03 3.26772E+03 2.50746E+04 6.01559E+03 2.53376E+04
 -1        54 1.63205E+07 6.22553E+02 5.59646E+03 3.35623E+04 3.10946E+03 4.09481E+04
 -1        55 1.61082E+07 3.71289E+03-3.13385E+03-1.38349E+04-2.89457E+02-2.91396E+03
 -1        56 1.67605E+07 7.93167E+03 1.06012E+04-2.59536E+03-9.26668E+03-4.95185E+03
 -1        57 1.63086E+07 7.32017E+02-4.59429E+03 5.07087E+04-1.93118E+03 4.47521E+04
 -1        58 1.63001E+07-4.48789E+03 7.49864E-02-5.89345E+04 2.15459E+03-1.40174E+03
 -1        59 1.59706E+07 4.29430E-02 3.12077E-02-2.70767E+03 4.50963E-04 1.07846E+04
 -1        60 1.59872E+07 7.81276E+01-8.16458E+02-8.42767E+03-3.69185E+02 8.68162E+03
 -1        61 1.60081E+07 2.87546E+02-3.18856E+02-7.29692E+03-1.57298E+01-3.13307E+03
 -1        62 1.63548E+07-2.04583E+03-4.68870E+03 2.43894E+04 3.36722E+03-3.11203E+04
 -1        63 1.63052E+07-4.22082E-02 3.12085E-02 1.03712E+04 1.18363E-02 4.98071E+03
 -1        64 1.61365E+07 2.71527E+03 1.68402E+02-5.15984E+03 1.44182E+03-8.61177E+03
 -1        65 1.60291E+07 9.05039E+02 8.26012E+02 1.33523E+03-8.65436E+02-1.87796E+03
 -1        66 1.62832E+07 4.16703E-02 1.08123E-03 1.44174E+04 1.54778E-02 8.27373E+03
 -1        67 1.62120E+07 6.75237E-02 4.53930E+03 3.95825E+03 2.53578E+03 3.74963E+04
 -1        68 1.61066E+07 3.07765E+03 2.14727E+03-2.45504E+03 2.61244E+03-5.45756E+03
 -1        69 1.60085E+07 1.07249E-02 4.85881E-02-5.92133E+03-4.60103E-03-7.40618E+02
 -1        70 2.74485E+05 3.04709E+03 1.48752E+03-1.52834E+04-3.30784E+03-1.64558E+04
 -1        71 3.39131E+04-7.28504E+03-2.15689E+04 8.11192E+02 1.15660E+04 6.95507E+03
 -1        72 1.33296E+05-1.13672E+04-1.47329E+04 2.45244E+04-7.29916E+03 9.04436E+03
 -1        73 3.13953E+04-1.52629E+04-1.53621E+04 7.40193E+03 1.17730E+04-1.11109E+03
 -1        74 5.67732E+04 5.21157E+03 1.63003E+03-2.85455E+03 1.49165E+03-3.39984E+03
 -1        75 1.11876E+05-2.36513E+04-2.29018E+04 2.40428E+04 1.17973E+03 2.10012E+04
 -1        76 5.94285E+04 3.65477E+03 1.88746E+03 7.20172E+03-8.41060E+02 2.97687E+03
 -1        77 5.04804E+04-1.01907E+04-1.26568E+04 4.95357E+03-1.62144E+04 8.34107E+03
 -1        78 1.41546E+05-8.60401E+03-1.75739E+04-2.58029E+04-2.11284E+03-2.33348E+04
 -1        79 1.67190E+05-1.32102E+04-1.23647E+03-2.96635E+03-1.09070E+04-3.91666E+04
 -1        80 1.46794E+05-1.00729E+04-1.09576E+04-2.13705E+04-9.04220E+03 3.42264E+03
 -1        81 3.73008E+04 4.14706E+03-1.15427E+04-9.73586E+03 1.38966E+04-1.19954E+04
 -1        82 4.51974E+04-4.22063E+03-3.31288E+02 1.63253E+04-1.84546E+03-7.71589E+03
 -1        83 4.05723E+04-1.91376E+04-1.86518E+04 8.95728E+03 7.07177E+03-1.27459E+02
 -1        84 2.66003E+04 6.66320E+01 6.29530E+03-2.01399E+04-3.53881E+02 2.01360E+04
 -1        85 1.28210E+05 2.02508E+04 9.35933E+03 1.55407E+04 7.24160E+03 1.50154E+04
 -1        86 7.69280E+04 1.07947E+04 1.87309E+03 4.77600E+03-2.06458E+02-1.46917E+04
 -1        87 4.05296E+04 7.67122E+03 6.12151E+03-5.15382E+03 9.51127E+03-5.99711E+03
 -1        88 7.62186E+04 4.11213E+03 5.80330E+03-1.45766E+04-7.43447E+01 4.52190E+03
 -1        89 1.32570E+05 1.38362E+04 9.79633E+03 3.14202E+04 9.37026E+03 3.04604E+04
 -1        90 1.28386E+05 1.22946E+04 1.59656E+04 1.60764E+04 7.81432E+03 1.63544E+04
 -1        91 3.58789E+04-6.77542E+03-2.87626E+04-8.95473E+02 6.20201E+03 1.04928E+04
 -1        92 4.89696E+04 3.98904E+03-7.70083E+03-5.76965E+03-2.03698E+03 1.64189E+04
 -1        93 2.19671E+04 1.22944E+04-3.90780E+03 2.06811E+04 7.71264E+02-2.21771E+04
 -1        94 3.69232E+04-7.64464E+03-7.35045E+02-1.22726E+04 1.34882E+04-9.87654E+03
 -1        95 1.16246E+07 1.51398E+04-9.06240E+02-2.64532E+04-4.28604E+03 1.96596E+04
 -1        96 6.08761E+06-3.69306E+03-2.91642E+03-1.72586E+04-4.69182E+02-1.00568E+04
 -1        97 6.12374E+06-5.29290E+03-1.80829E+04-8.03814E+03-4.86241E+03 9.63018E+03
 -1        98 1.47220E+07 1.70637E+04 1.65713E+04 1.30883E+04-1.04525E+04-1.47869E+04
 -1        99 1.47432E+07 6.73007E+03-8.44029E+03-4.92718E+03 7.02471E+03 9.27769E+03
 -1       100 1.54849E+07-1.41564E+04-1.06986E+04-2.50977E+04-1.73106E+04-4.45028E+04
 -1       101 1.54438E+07-2.35514E+04 1.43530E+04 5.00894E+04 1.62950E+03 2.38921E+04
 -1       102 1.42886E+07-1.32429E+04 1.66977E+03 5.72860E+04 1.19196E+03-1.46553E+04
 -1       103 1.33040E+07 1.76863E+04 2.29121E+03-2.72352E+04-9.96684E+03-6.10434E+04
 -1       104 1.32646E+07 9.86710E+03-8.43757E+02-8.78634E+01 3.36080E+03 4.27565E+04
 -1       105 1.54376E+07-1.28909E+04-6.48574E+03 1.34708E+04-5.55356E+03-1.34987E+04
 -1       106 1.54941E+07-1.15169E+04-1.24320E+04-3.32555E+04 8.86528E+03 3.73812E+04
 -1       107 8.71564E+06 4.47594E+03 6.11376E+03-3.17600E+04 3.18184E+03-3.42192E+04
 -1       108 8.77731E+06-1.13991E+03 5.05024E+03-3.85768E+04-3.58029E+03 1.43337E+04
 -1       109 1.13369E+07 7.60143E+03 2.27671E+04-1.55479E+04-5.95386E+03-2.37910E+04
 -1       110 5.87519E+06-2.99206E+03 1.51678E+04 1.84510E+03 2.25073E+03 1.94787E+04
 -1       111 3.11593E+06-7.41095E+03 2.87409E+03-1.51221E+04 1.92751E+03 6.94253E+02
 -1       112 3.10429E+06-1.27647E+03-5.28285E+03 8.00969E+03-3.98328E+03-9.29436E+03
 -1       113 8.75641E+06 3.55453E+03-1.23752E+04-7.34300E+03-9.33158E+03 6.68588E+04
 -1       114 3.14251E+06-3.45268E+03 9.96396E+02-1.15899E+04 1.77316E+03-4.60622E+03
 -1       115 1.13220E+07 5.17678E+03 1.57567E+04-2.09192E+04 2.53735E+03 1.63929E+04
 -1       116 8.77065E+06-1.17862E+03 2.42754E+03-3.15880E+04 1.00449E+04-2.54444E+04
 -1       117 3.11261E+06-5.95883E+03-9.46135E+03 5.92738E+03-2.97838E+03 7.60065E+03
 -1       118 1.31251E+07 1.11132E+04 1.49879E+04-7.42373E+03 4.23125E+03-3.69161E+03
 -1       119 1.31667E+07 1.27235E+04-3.22335E+03 1.41702E+04 1.25208E+03-2.17753E+04
 -1       120 1.14378E+07 1.51983E+04 3.15639E+03 6.15204E+03 2.86492E+03 1.54485E+04
 -1       121 6.10564E+06-2.17820E+02-9.79308E+03 1.58414E+04-3.27902E+03 1.96290E+03
 -1       122 1.47564E+07-5.32858E+03-1.19753E+04 7.61278E+03 2.46899E+03 2.79399E+03
 -1       123 6.12852E+06 2.35246E+03-3.60350E+03 1.61764E+04 5.32305E+03-5.07531E+03
 -1       124 1.47373E+07-3.00504E+02-1.26211E+04 1.31747E+03-2.11308E+03-3.24873E+03
 -1       125 8.77441E+06 1.02843E+04 5.74488E+03 8.35568E+03 8.87730E+03-2.06818E+03
 -1       126 8.79472E+06 1.04454E+04 3.65410E+03 2.36158E+04 1.59637E+03-2.27105E+04
 -1       127 1.13317E+07 7.81221E+03 1.63526E+04-7.92249E+03 2.24662E+03 8.61892E+03
 -1       128 3.09503E+06 7.42665E+02 2.50264E+03-6.06836E+03 4.80035E+03-1.97993E+04
 -1       129 1.31490E+07 5.55469E+02-8.59190E+02-3.52482E+04 6.22698E+03-2.87750E+04
 -1       130 1.31579E+07-9.13070E+02-4.66212E+03 1.55927E+03-6.64475E+03 5.21291E+04
 -1       131 1.54884E+07-1.20101E+04-1.76940E+04 3.34760E+04-1.25279E+04 2.73325E+04
 -1       132 8.77427E+06 1.05341E+04-1.73946E+03 2.09181E+04-9.35883E+03-8.28091E+03
 -1       133 1.13474E+07 1.40637E+04 1.31515E+04 8.06584E+03-4.82601E+03-6.93302E+03
 -1       134 8.77797E+06 8.41810E+03-1.07719E+03 2.59237E+04 3.43966E+03 1.88540E+04
 -1       135 3.09406E+06-9.70437E+02-7.91864E+02-6.39812E+03-3.51766E+03 1.59356E+04
 -1       136 3.06525E+06-9.86397E+03-1.47686E+04 1.49123E+04-2.26065E+03-1.42603E+04
 -1       137 5.88094E+06-1.35098E+04-2.19056E+03 5.24206E+04 4.65980E+03 1.51287E+03
 -1       138 1.55153E+07-1.35708E+04-3.47706E+03 3.81048E+04-1.55966E+03 3.94964E+04
 -1       139 1.42337E+07-2.64308E+04 3.11830E+03 5.87918E+04 2.24951E+03 9.24638E+03
 -1       140 1.31135E+07-4.39913E+03-3.35917E+03-2.43251E+04 3.19266E+03-3.50678E+04
 -1       141 1.54987E+07-9.05664E+03-1.37535E+04 4.09075E+04 7.60171E+03-2.76583E+04
 -1       142 1.31821E+07-7.68866E+03-4.89669E+03-7.21607E+04 2.17188E+01 5.29145E+04
 -1       143 3.05883E+06-1.36505E+04-1.32815E+04 1.67754E+04 2.67377E+03 2.22891E+04
 -1       144 1.55256E+07-3.90510E+03-1.16823E+02 9.71966E+03 7.97559E+03-5.34755E+04
 -1       145 1.16369E+07-2.01237E+03 1.60730E+04 7.63885E+03-2.45681E+03-1.94311E+04
 -1       146 1.47886E+07-1.43234E+04 1.34414E+03 8.23195E+03 5.82201E+03-8.06725E+03
 -1       147 6.08533E+06-3.57179E+03-1.98628E+03-8.30842E+03-1.81317E+02-1.67175E+04
 -1       148 6.10924E+06-1.30369E+04-7.21541E+03 9.25628E+03-7.20941E+03-1.32793E+04
 -1       149 1.46870E+07 8.82676E+03-3.32106E+03-5.18621E+03-4.79778E+03-3.91850E+03
 -1       150 1.54435E+07 1.04147E+04-2.46793E+03 1.30019E+04 4.80813E+03 1.90129E+04
 -1       151 1.54764E+07-4.98576E+03-1.12677E+04-3.35081E+04-9.69187E+03-3.35102E+04
 -1       152 1.42811E+07 1.25090E+04-1.22266E+04-1.88149E+04 9.32941E+03 6.30505E+04
 -1       153 1.54417E+07-6.49745E+03-6.90506E+03-2.31429E+04 1.43499E+03-3.32654E+02
 -1       154 1.32789E+07-7.43562E+03 4.36700E+03 4.49806E+04 2.02757E+03 3.72159E+03
 -1       155 1.32924E+07 1.91069E+03 6.60171E+03-7.01032E+04 1.11114E+03-2.24160E+04
 -1       156 1.54945E+07-1.46596E+04-4.02236E+03 4.77798E+04 7.07400E+03-4.42792E+04
 -1       157 1.31803E+07-1.08701E+03-2.28646E+04 3.81880E+04-1.40863E+03 9.29253E+04
 -1       158 1.31791E+07-3.57735E+03 6.59716E+03-2.66720E+04-1.84727E+03 1.92604E+04
 -1       159 1.13383E+07 1.72594E+04 9.20253E+03-2.11954E+04-7.25102E+03-9.26024E+03
 -1       160 8.77366E+06 5.11554E+03-6.95763E+02 1.42341E+04-3.80458E+03-3.68203E+04
 -1       161 8.72475E+06 8.00116E+02 4.07550E+03-3.21632E+04 2.32157E+03-2.83779E+04
 -1       162 3.10282E+06-5.15665E+03-1.26602E+03-7.98922E+03-3.81074E+03 7.71704E+03
 -1       163 3.11472E+06 5.03779E+03-6.56261E+03 8.45816E+02 2.58919E+03-1.55110E+04
 -1       164 5.88365E+06 1.29084E+04-5.11472E+03 1.40028E+04 1.46790E+03 2.06509E+03
 -1       165 3.13547E+06 5.88570E+03-4.73595E+03-4.25521E+03 8.67159E+02-1.30188E+04
 -1       166 8.74889E+06-6.77039E+03 6.50480E+02 5.16404E+04-9.28799E+03-7.99895E+03
 -1       167 8.75526E+06-6.79709E+03 8.05824E+03-2.31350E+04 7.68581E+03-3.46956E+04
 -1       168 1.13611E+07 4.32495E+03 2.21532E+04 1.15899E+04 1.06653E+04 7.78581E+03
 -1       169 3.10590E+06-5.65501E+03-7.66390E+03 9.12189E+03-3.42414E+03 2.65676E+03
 -1       170 1.15935E+07 3.62778E+03 1.52139E+04-1.78075E+03 2.95490E+02 1.58927E+04
 -1       171 6.04194E+06-1.48809E+02 3.10996E+03-9.30508E+03-5.36534E+02 4.55811E+03
 -1       172 6.11587E+06-1.51778E+04-2.54330E+02 7.75276E+03-4.82614E+03 1.85228E+04
 -1       173 1.47340E+07-1.66245E+04-5.21685E+02 1.32856E+03-1.87911E+03 4.51256E+03
 -1       174 1.46744E+07-4.45878E+03 3.49225E+03-4.25128E+03 3.66062E+03 4.61617E+03
 -1       175 1.31465E+07-2.29522E+03 2.82152E+03-2.73113E+04 3.81567E+03-3.01299E+04
 -1       176 1.54868E+07-2.21984E+04-1.11258E+04 3.17528E+04-1.19695E+04 3.41124E+04
 -1       177 1.32310E+07-1.24631E+04-4.42862E+03 5.88228E+04-8.57299E+03 7.00410E+02
 -1       178 1.13549E+07 1.22393E+04 1.05519E+04 1.89329E+03 1.13766E+03 7.92455E+03
 -1       179 8.75793E+06 4.09732E+03-5.08627E+03 1.38247E+04-2.83904E+02 4.52059E+04
 -1       180 3.08628E+06 6.97557E+02 1.09694E+03-6.41898E+03-2.14650E+02-1.96847E+03
 -1       181 8.79094E+06 5.41213E+03 4.95820E+03-4.78060E+04-3.04901E+03-1.12891E+04
 -1       182 8.78513E+06-3.75701E+03 9.20816E+03-7.31558E+03-9.55419E+03 2.24509E+04
 -1       183 8.78884E+06-6.13346E+03 1.00501E+04 3.09412E+04 2.27872E+03 3.01262E+04
 -1       184 1.13827E+07 1.12168E+04 1.60046E+04 2.23061E+03-9.21617E+03 1.84563E+03
 -1       185 3.10036E+06-3.12339E+03-5.72402E+02 2.05894E+04-4.15889E+03-4.32795E+03
 -1       186 3.06021E+06-1.27627E+04-1.58697E+04-1.09007E+04-5.03360E+03 2.23032E+04
 -1       187 5.86771E+06 5.42984E+03-9.69380E+03 3.96655E+03-4.75930E+02 4.76930E+04
 -1       188 1.54744E+07 1.05856E+03-1.12114E+03-3.37109E+04 8.53769E+03 8.09966E+03
 -1       189 1.42505E+07 9.73171E+03-6.81456E+03-1.52095E+04 6.01626E+03 6.97710E+03
 -1       190 1.31800E+07-8.22242E+03-9.76238E+03 4.38352E+04 4.76595E+03-6.72082E+04
 -1       191 1.32423E+07 4.44755E+03 9.44345E+03-7.34201E+04-6.01117E+03 5.52589E+04
 -1       192 1.54691E+07-1.17010E+04-8.77076E+03-2.86347E+04 9.24017E+03 2.25603E+04
 -1       193 1.54922E+07 6.28794E+03-4.85691E+03 3.64532E+04 3.07799E+02-4.14363E+04
 -1       194 3.04329E+06-1.04954E+04-5.49105E+03 1.58074E+02 3.71905E+03 2.40132E+04
 -1       195 1.34735E+07-4.13735E+03 6.93549E+03 1.39279E+03-3.85278E+03-4.62062E+03
 -1       196 9.12766E+06-9.70753E+03-7.82476E+03 3.44983E+03-2.52021E+03 3.24265E+03
 -1       197 1.55864E+07 1.66878E+04 1.34608E+04 8.21167E+04-1.66416E+03 6.60423E+04
 -1       198 1.43944E+07 1.19502E+04 1.20574E+04 5.03612E+04 3.04844E+03-5.29980E+04
 -1       199 1.22515E+07 4.07606E+03-2.73106E+03-4.10393E+04-1.67618E+04-4.13779E+04
 -1       200 1.03970E+07 6.00970E+03-9.26791E+03-4.20705E+04-7.78055E+03 4.73805E+04
 -1       201 1.34214E+07 5.32554E+03 1.05781E+04 1.14496E+04-2.55210E+02-7.77718E+03
 -1       202 8.74142E+06-1.89314E+03-2.21585E+03-7.68397E+03 5.54164E+01-2.45707E+03
 -1       203 6.10192E+06-3.15365E+03-7.28127E+03 4.54775E+03-1.78648E+03 7.28726E+02
 -1       204 7.48428E+06-1.57563E+03-7.92393E+03-1.34700E+04-4.69850E+03 6.64885E+03
 -1       205 7.46129E+06 1.51804E+03-3.07904E+03-3.08898E+04-1.09425E+03-4.65525E+03
 -1       206 1.03840E+07-6.40674E+03 8.43914E+03 3.84005E+04-8.42104E+03-3.84721E+04
 -1       207 3.15239E+06-2.51813E+03-1.84927E+03-1.23958E+04-5.51576E+03-2.00720E+04
 -1       208 3.04751E+06-6.52767E+03-8.69960E+03 9.74048E+03 3.33474E+03-4.78247E+03
 -1       209 5.92058E+06 4.85210E+03-4.37662E+03-7.82449E+03 2.69135E+03 2.42322E+04
 -1       210 3.08723E+06-4.87261E+03-4.26828E+03 1.78088E+04 2.88417E+03 1.28241E+04
 -1       211 3.14597E+06-2.08342E+03-3.94923E+03-1.79666E+04-6.12668E+03-1.31794E+04
 -1       212 3.05287E+06-7.93710E+03-9.44436E+03-1.01700E+02 2.19834E+03 1.20019E+04
 -1       213 1.32077E+07 4.43567E+03 2.93957E+03-2.45938E+04 7.63715E+03 1.23347E+04
 -1       214 1.47041E+07 2.97571E+02-2.63984E+03 2.51829E+02 1.09343E+04 9.58940E+03
 -1       215 1.55384E+07 1.05028E+04-1.01289E+04 3.37044E+04-4.96193E+03 4.45087E+04
 -1       216 1.43673E+07 8.13569E+03 4.09821E+03-1.94707E+04-3.08608E+03 6.29599E+04
 -1       217 3.25789E+06-4.05239E+03-4.19249E+03 1.46025E+04-3.21333E+03 1.87465E+04
 -1       218 3.08204E+06-2.30297E+03-5.17547E+03 1.75092E+04-6.89893E+02 7.01756E+03
 -1       219 5.98042E+06 4.86259E+03-5.10844E+03 6.41362E+03-4.21065E+02-2.47602E+04
 -1       220 1.01311E+07 1.28704E+04-3.06551E+03-7.67081E+03 7.32825E+02 1.91238E+04
 -1       221 4.60323E+06-8.87649E+02-1.87942E+03-1.92722E+04 2.89562E+03-2.03587E+04
 -1       222 5.97872E+06-1.41255E+03 5.15924E+03-1.40899E+04 1.77733E+03 9.05477E+03
 -1       223 7.49187E+06-1.27254E+04 1.16014E+02 7.55772E+03-4.75765E+03-1.49638E+04
 -1       224 1.01418E+07-8.93810E+03 1.53993E+04 2.42936E+04 2.19796E+03-7.76210E+03
 -1       225 1.13152E+07 7.79357E+03 1.82260E+04-5.64008E+03 7.53160E+03-9.71442E+03
 -1       226 1.40254E+07 1.01527E+04 1.66497E+03-1.19116E+04 5.56977E+02-8.11336E+03
 -1       227 1.24380E+07 1.41344E+04 4.93398E+03-8.81165E+03-8.44245E+02 5.48504E+04
 -1       228 1.25333E+07-1.98497E+03 1.47750E+04 4.14888E+04-2.82139E+03-3.02516E+04
 -1       229 1.43592E+07 5.77820E+03 1.33443E+04-4.80874E+04 2.82596E+01 3.64620E+04
 -1       230 1.34201E+07 1.70407E+04 1.47413E+04-3.72105E+03-2.07974E+03-5.41721E+03
 -1       231 9.92442E+06 3.13387E+03 2.35430E+03-1.13481E+04-1.27172E+03-1.63924E+04
 -1       232 7.20124E+06-1.65546E+01 1.70976E+03-6.42008E+03 3.82295E+03-1.03809E+04
 -1       233 1.24410E+07 9.05182E+03 5.81606E+03-2.35270E+04-3.28670E+03 3.34941E+04
 -1       234 1.43598E+07 1.64515E+04-1.68469E+03 3.49961E+04-7.19767E+02-4.01082E+04
 -1       235 1.12996E+07 1.32542E+04 1.10698E+04-6.41483E+03 4.82714E+03-7.07793E+03
 -1       236 1.24421E+07-9.52483E+03 1.91695E+04 5.51293E+04-1.06066E+03-4.39915E+03
 -1       237 1.49727E+07 4.32370E+03 7.15273E+03-4.10957E+04 1.27579E+03-3.44131E+04
 -1       238 1.14296E+07-1.00063E+04 1.09653E+03 5.89009E+04 3.90390E+03 5.76037E+04
 -1       239 3.07430E+06 1.32268E+03-4.30944E+02 4.22722E+03-3.40202E+03-2.81621E+03
 -1       240 4.54788E+06 8.38020E+03-7.44519E+03-5.09263E+03 2.23829E+03 1.10004E+04
 -1       241 4.48984E+06 2.04652E+02-1.77924E+02 7.68970E+03 1.65857E+03 6.76675E+03
 -1       242 7.52348E+06-1.36209E+04-1.10055E+04 2.91083E+04-4.62642E+03 1.92160E+04
 -1       243 3.07851E+06 1.92097E+03-2.74053E+03-1.37908E+03-2.77509E+03 3.41392E+03
 -1       244 4.54921E+06-9.13873E+03 7.10954E+03 1.16611E+04 2.59343E+03-5.04003E+03
 -1       245 7.53035E+06-1.14650E+04-1.71421E+04 2.44958E+04-1.92731E+03 2.74221E+04
 -1       246 6.11526E+06-1.00679E+04-1.34274E+04 3.60021E+03-7.41894E+03-6.66948E+01
 -1       247 1.01959E+07-8.04138E+03 7.46942E+03 2.30709E+03 9.71461E+03-6.54583E+03
 -1       248 1.47465E+07-9.68219E+03-8.70666E+03-8.55930E+02-2.66950E+03-8.62772E+02
 -1       249 1.41079E+07-1.02737E+04-8.02028E+03 1.17041E+04-4.70229E+03 1.72880E+04
 -1       250 1.41134E+07-1.25176E+04-5.44797E+03 2.33601E+04-5.64149E+03 1.17545E+04
 -1       251 1.23439E+07 8.58784E+02 1.07562E+04 3.51630E+02 2.68692E+03-3.14717E+03
 -1       252 1.54142E+07-8.78200E+02-7.89198E+03-1.76010E+03-5.10101E+03-8.84342E+03
 -1       253 1.49750E+07-2.05969E+04 9.70498E+03 9.21478E+03-1.34642E+03-1.97956E+04
 -1       254 1.48985E+07-1.00951E+04-3.94993E+03-1.53818E+04-5.41157E+03-2.09095E+04
 -1       255 1.54100E+07-1.20192E+04-6.52297E+02-4.47544E+03-3.65982E+03-2.81217E+03
 -1       256 1.49304E+07 8.21894E+03-5.39027E+03-4.03131E+04 2.99115E+03-8.97515E+03
 -1       257 1.40527E+07-1.11088E+04 3.28294E+03-1.90120E+04-1.70635E+03-3.66035E+04
 -1       258 7.46301E+06-6.17211E+03 3.51279E+03-5.41929E+03-8.91281E+02-3.21094E+04
 -1       259 1.49298E+07 1.01523E+04-6.51887E+03-1.10575E+04-4.47463E+03 1.64315E+03
 -1       260 1.54129E+07-1.98940E+03-8.81064E+03 4.24768E+03 8.56422E+02 8.43313E+03
 -1       261 1.54010E+07-8.33850E+03-2.31092E+03-4.67149E+03 1.36400E+03 3.96463E+02
 -1       262 3.06514E+06-7.34524E+03-9.47097E+03 4.21136E+03 3.99230E+03-7.23682E+03
 -1       263 6.10778E+06-1.00670E+04-2.79687E+03 2.62317E+03-2.09350E+03 3.94045E+03
 -1       264 1.55100E+07 9.92317E+02-1.16369E+02 4.33866E+04 4.58512E+03-4.56391E+04
 -1       265 1.46895E+07 1.28028E+04-5.71106E+03 3.10931E+02-1.62889E+04-1.72397E+04
 -1       266 1.54808E+07 5.01725E+03-7.89743E+03 2.75920E+04 5.44739E+03 7.15873E+03
 -1       267 6.07777E+06-9.21631E+02-8.22328E+02-3.89108E+03 3.32753E+03-2.22434E+04
 -1       268 1.47620E+07-1.08711E+04-3.03816E+03 1.14874E+04 4.68469E+03 4.01536E+03
 -1       269 3.06769E+06-7.91289E+03-9.82959E+03-7.11609E+03 3.49563E+03 3.08301E+03
 -1       270 3.11965E+06 3.09442E+03 7.59960E+03-6.41293E+03-2.16206E+02 9.53444E+03
 -1       271 1.55689E+07-1.11447E+04 1.27776E+03-6.03084E+04 6.40755E+03 1.30382E+03
 -1       272 1.40026E+07-9.18959E+03 1.16263E+04 1.47479E+04 3.56123E+03-7.51044E+02
 -1       273 1.32034E+07 5.71465E+03 2.12263E+04-2.62278E+04-9.98242E+03-4.05849E+04
 -1       274 8.74550E+06-4.40365E+03 2.41110E+03-4.23100E+03 6.70610E+02-1.00081E+04
 -1       275 3.12239E+06 7.77474E+03 1.11010E+03 1.07751E+04-5.58075E+02-6.39547E+03
 -1       276 1.55675E+07 8.87770E+03-9.83881E+03 7.70998E+03 3.08657E+03-4.78741E+04
 -1       277 8.81780E+06 4.53482E+03 3.23863E+03-1.32953E+04 2.71725E+03 3.13180E+03
 -1       278 1.30767E+07-3.63479E+03 3.47717E+03 1.29958E+04 8.20395E+03-3.82538E+03
 -1       279 1.42750E+07 5.26316E+03 1.91435E+03-7.08383E+03 5.94601E+02-9.74699E+03
 -1       280 1.55101E+07-4.68450E+03-2.78696E+03-4.36503E+03 3.76830E+03 2.34793E+04
 -3
    1PSTEP                        12           1           1          
    1PGM                1.000000E+00                                  
    1PGK                6.248515E+11                                  
    1PHID                         -1                                  
    1PSUBC                         0                                  
    1PMODE                         4                                  
  100CL  104 1.25808E+05         280                     2    4MODAL      1
 -4  TOSTRAIN    6    1
 -5  EXX         1    4    1    1
 -5  EYY         1    4    2    2
 -5  EZZ         1    4    3    3
 -5  EXY         1    4    1    2
 -5  EYZ         1    4    2    3
 -5  EZX         1    4    3    1
 -1         1 8.08135E+01-4.74964E-02-6.27950E-02-3.26636E-01-3.85695E-02-3.31881E-01
 -1         2 8.07880E+01-4.92820E-02-6.58202E-02-3.01195E-01 3.81682E-02 2.50178E-01
 -1         3 8.07562E+01-5.95884E-02-4.48482E-02 2.69104E-01 4.94162E-02-2.57239E-01
 -1         4 8.07808E+01-6.85821E-02-6.62327E-02 2.78415E-01-6.72244E-02 2.66472E-01
 -1         5 4.94370E-01-1.26675E-02-2.34901E-02 5.45207E-03 2.11541E-02-4.40097E-03
 -1         6 5.44187E-01 2.51218E-02-2.88372E-02 5.07837E-02-2.40877E-02 5.79913E-03
 -1         7 5.31867E-01-2.60875E-02 1.56182E-02 6.19290E-03-2.21766E-02 3.98294E-02
 -1         8 5.34525E-01 1.55354E-02 2.42753E-02-1.36626E-02-2.83128E-03-2.10956E-02
 -1         9 8.06991E+01-1.65295E-02-3.54177E-03 1.04668E-01-1.12762E-03-1.60094E-02
 -1        10 8.02026E+01 7.62338E-07-1.07484E-07 5.85268E-03 1.56898E-07 9.09856E-03
 -1        11 7.99949E+01 5.82334E-07 1.64158E-07 2.50505E-02 1.01974E-07-1.18773E-02
 -1        12 8.06804E+01 5.03245E-03 3.60865E-03-2.17198E-02 1.49419E-02 1.05765E-01
 -1        13 8.03044E+01-1.24550E-07 1.31002E-07-2.43128E-02-1.96288E-08 5.56506E-03
 -1        14 7.99705E+01 1.57560E-07 5.70186E-08-1.52440E-02 8.03423E-08 5.71391E-02
 -1        15 8.13581E+01-5.87987E-02 2.56888E-02 1.89917E-01 2.28497E-02 2.17120E-02
 -1        16 8.02126E+01 2.02299E-08 2.26671E-07-3.72220E-02 1.82699E-09 1.08940E-02
 -1        17 8.02953E+01 1.57689E-07 1.93788E-07 1.93553E-02 1.56680E-07-4.38221E-03
 -1        18 8.12997E+01 3.03671E-02-1.37154E-02-7.36752E-02 4.49468E-02-4.11128E-02
 -1        19 8.03894E+01-1.03925E-07 1.43010E-07 2.29995E-02-4.75594E-08-7.51239E-02
 -1        20 8.01724E+01 3.91224E-07 1.43889E-07 4.73688E-02 7.15906E-08 1.03249E-02
 -1        21 7.89400E-01-2.99424E-02 3.55300E-02-8.21534E-02 2.85791E-02 4.32485E-03
 -1        22 1.88387E-01 2.28805E-02 5.99298E-02-2.26287E-02 3.50069E-02 1.73792E-02
 -1        23 1.88329E-01 4.85793E-03 1.33325E-02-4.52053E-02-2.38435E-03-2.12607E-02
 -1        24 7.84600E-01 6.09262E-02-3.48482E-02 3.73995E-03 2.96234E-02-8.34451E-02
 -1        25 2.02720E-01 7.76333E-02 2.20857E-02 2.21939E-02 3.69598E-02-2.49980E-02
 -1        26 1.92445E-01 2.93400E-02 3.78221E-03-1.85940E-02 2.05405E-03-4.77114E-02
 -1        27 4.13283E-01-1.19808E-01-1.42610E-01 1.13332E-01-1.54993E-02 2.22295E-02
 -1        28 2.24742E-01-3.14666E-02-1.83709E-02 5.01898E-02-9.02327E-03-2.38146E-02
 -1        29 2.43670E-01-5.80801E-02 4.13673E-03 7.41025E-02-1.01205E-02 4.96153E-02
 -1        30 3.41864E-01-1.21180E-01-1.51205E-01-1.36674E-02-2.85944E-03 1.73486E-01
 -1        31 1.76414E-01 1.97363E-02-4.59913E-02-1.01375E-02-2.80547E-02 5.35154E-02
 -1        32 1.67422E-01-4.52313E-02-2.00751E-02 1.59524E-02 1.21744E-02 7.51649E-02
 -1        33 5.70085E+01 1.78855E-02 1.07224E-01-9.46250E-02 1.24957E-01-1.43611E-02
 -1        34 7.12962E+01-1.51764E-01-2.36141E-01-1.78905E-01-9.41386E-02 7.44226E-02
 -1        35 2.93721E+01-6.34994E-02-4.81579E-02-9.15361E-02-2.14661E-02-9.84459E-02
 -1        36 5.73967E+01 5.13155E-02 6.40886E-02-1.30169E-02-7.20489E-02-8.90633E-02
 -1        37 7.12159E+01-1.42615E-01-2.14129E-01-1.62313E-01 1.28500E-01 9.14511E-03
 -1        38 2.95089E+01-6.23136E-02-4.10386E-02-1.29265E-01 3.66977E-02 7.52349E-02
 -1        39 5.73731E+01 7.61930E-02 4.68430E-02-1.01303E-01-6.50589E-02-3.72003E-03
 -1        40 7.12005E+01-1.98221E-01-1.46640E-01 1.88689E-02 1.52557E-01-1.63392E-01
 -1        41 2.94942E+01-3.94694E-02-7.17064E-02 7.03616E-02 3.57914E-02-1.26053E-01
 -1        42 5.71132E+01 6.61927E-02 7.68010E-02-5.16040E-02 6.87815E-02-5.36133E-03
 -1        43 7.11852E+01-1.79028E-01-1.81560E-01 6.01736E-02-1.56601E-01 7.90593E-02
 -1        44 2.94999E+01-4.77315E-02-9.74858E-02 5.79538E-02-5.78999E-02 1.77916E-01
 -1        45 8.24136E+01 4.27258E-02 2.72501E-02-2.21083E-01 7.13837E-03-1.58174E-01
 -1        46 8.14826E+01 2.12536E-02-1.46599E-02 2.09686E-01 2.18477E-02-5.42422E-02
 -1        47 8.28187E+01 5.25977E-02 3.17042E-02 3.76943E-01-1.27603E-02 3.49371E-01
 -1        48 8.04366E+01-1.16008E-03-3.48962E-04-1.38735E-02-1.38283E-02-3.06243E-02
 -1        49 7.97925E+01 2.36063E-03-7.87589E-03-4.18645E-02-2.75787E-03 3.01147E-02
 -1        50 8.03729E+01 1.40468E-02-8.58826E-03-5.11431E-03 2.72907E-03-3.94749E-02
 -1        51 8.01873E+01 4.10276E-07 1.69971E-07-1.96472E-02 1.85097E-07-7.03236E-03
 -1        52 8.15403E+01 3.46740E-07-3.37501E-02-1.88439E-02 8.67221E-03-2.79329E-01
 -1        53 8.12975E+01 4.38170E-02 1.63386E-02 1.25373E-01 3.00780E-02 1.26688E-01
 -1        54 8.16026E+01 3.11277E-03 2.79823E-02 1.67812E-01 1.55473E-02 2.04741E-01
 -1        55 8.05412E+01 1.85644E-02-1.56692E-02-6.91745E-02-1.44728E-03-1.45698E-02
 -1        56 8.38023E+01 3.96583E-02 5.30062E-02-1.29768E-02-4.63334E-02-2.47592E-02
 -1        57 8.15430E+01 3.66008E-03-2.29715E-02 2.53544E-01-9.65590E-03 2.23760E-01
 -1        58 8.15005E+01-2.24394E-02 3.74932E-07-2.94672E-01 1.07730E-02-7.00870E-03
 -1        59 7.98531E+01 2.14715E-07 1.56039E-07-1.35383E-02 2.25482E-09 5.39231E-02
 -1        60 7.99362E+01 3.90638E-04-4.08229E-03-4.21383E-02-1.84592E-03 4.34081E-02
 -1        61 8.00404E+01 1.43773E-03-1.59428E-03-3.64846E-02-7.86488E-05-1.56654E-02
 -1        62 8.17739E+01-1.02291E-02-2.34435E-02 1.21947E-01 1.68361E-02-1.55601E-01
 -1        63 8.15261E+01-2.11041E-07 1.56043E-07 5.18558E-02 5.91816E-08 2.49035E-02
 -1        64 8.06823E+01 1.35764E-02 8.42009E-04-2.57992E-02 7.20911E-03-4.30589E-02
 -1        65 8.01455E+01 4.52520E-03 4.13006E-03 6.67615E-03-4.32718E-03-9.38980E-03
 -1        66 8.14159E+01 2.08351E-07 5.40615E-09 7.20868E-02 7.73887E-08 4.13687E-02
 -1        67 8.10600E+01 3.37619E-07 2.26965E-02 1.97912E-02 1.26789E-02 1.87482E-01
 -1        68 8.05331E+01 1.53882E-02 1.07364E-02-1.22752E-02 1.30622E-02-2.72878E-02
 -1        69 8.00426E+01 5.36246E-08 2.42940E-07-2.96066E-02-2.30052E-08-3.70309E-03
 -1        70 1.37243E+00 1.52355E-02 7.43761E-03-7.64171E-02-1.65392E-02-8.22791E-02
 -1        71 1.69566E-01-3.64252E-02-1.07844E-01 4.05596E-03 5.78300E-02 3.47753E-02
 -1        72 6.66481E-01-5.68360E-02-7.36645E-02 1.22622E-01-3.64958E-02 4.52218E-02
 -1        73 1.56977E-01-7.63147E-02-7.68104E-02 3.70096E-02 5.88652E-02-5.55548E-03
 -1        74 2.83866E-01 2.60579E-02 8.15016E-03-1.42727E-02 7.45823E-03-1.69992E-02
 -1        75 5.59380E-01-1.18257E-01-1.14509E-01 1.20214E-01 5.89863E-03 1.05006E-01
 -1        76 2.97143E-01 1.82738E-02 9.43730E-03 3.60086E-02-4.20530E-03 1.48844E-02
 -1        77 2.52402E-01-5.09535E-02-6.32840E-02 2.47679E-02-8.10720E-02 4.17054E-02
 -1        78 7.07731E-01-4.30200E-02-8.78694E-02-1.29015E-01-1.05642E-02-1.16674E-01
 -1        79 8.35949E-01-6.60508E-02-6.18235E-03-1.48318E-02-5.45348E-02-1.95833E-01
 -1        80 7.33972E-01-5.03645E-02-5.47878E-02-1.06853E-01-4.52110E-02 1.71132E-02
 -1        81 1.86504E-01 2.07353E-02-5.77134E-02-4.86793E-02 6.94830E-02-5.99772E-02
 -1        82 2.25987E-01-2.11031E-02-1.65644E-03 8.16265E-02-9.22728E-03-3.85795E-02
 -1        83 2.02862E-01-9.56882E-02-9.32588E-02 4.47864E-02 3.53588E-02-6.37293E-04
 -1        84 1.33002E-01 3.33160E-04 3.14765E-02-1.00700E-01-1.76940E-03 1.00680E-01
 -1        85 6.41050E-01 1.01254E-01 4.67966E-02 7.77036E-02 3.62080E-02 7.50771E-02
 -1        86 3.84640E-01 5.39735E-02 9.36547E-03 2.38800E-02-1.03229E-03-7.34585E-02
 -1        87 2.02648E-01 3.83561E-02 3.06075E-02-2.57691E-02 4.75563E-02-2.99856E-02
 -1        88 3.81093E-01 2.05607E-02 2.90165E-02-7.28831E-02-3.71724E-04 2.26095E-02
 -1        89 6.62849E-01 6.91810E-02 4.89816E-02 1.57101E-01 4.68513E-02 1.52302E-01
 -1        90 6.41928E-01 6.14733E-02 7.98278E-02 8.03822E-02 3.90716E-02 8.17722E-02
 -1        91 1.79395E-01-3.38771E-02-1.43813E-01-4.47736E-03 3.10101E-02 5.24638E-02
 -1        92 2.44848E-01 1.99452E-02-3.85041E-02-2.88482E-02-1.01849E-02 8.20944E-02
 -1        93 1.09836E-01 6.14718E-02-1.95390E-02 1.03406E-01 3.85632E-03-1.10886E-01
 -1        94 1.84616E-01-3.82232E-02-3.67522E-03-6.13632E-02 6.74410E-02-4.93827E-02
 -1        95 5.81230E+01 7.56989E-02-4.53120E-03-1.32266E-01-2.14302E-02 9.82979E-02
 -1        96 3.04380E+01-1.84653E-02-1.45821E-02-8.62930E-02-2.34591E-03-5.02838E-02
 -1        97 3.06187E+01-2.64645E-02-9.04145E-02-4.01907E-02-2.43121E-02 4.81509E-02
 -1        98 7.36099E+01 8.53187E-02 8.28567E-02 6.54415E-02-5.22623E-02-7.39347E-02
 -1        99 7.37158E+01 3.36503E-02-4.22015E-02-2.46359E-02 3.51235E-02 4.63885E-02
 -1       100 7.74243E+01-7.07818E-02-5.34928E-02-1.25489E-01-8.65532E-02-2.22514E-01
 -1       101 7.72192E+01-1.17757E-01 7.17648E-02 2.50447E-01 8.14749E-03 1.19460E-01
 -1       102 7.14432E+01-6.62145E-02 8.34884E-03 2.86430E-01 5.95979E-03-7.32763E-02
 -1       103 6.65202E+01 8.84316E-02 1.14561E-02-1.36176E-01-4.98342E-02-3.05217E-01
 -1       104 6.63230E+01 4.93355E-02-4.21879E-03-4.39317E-04 1.68040E-02 2.13783E-01
 -1       105 7.71879E+01-6.44543E-02-3.24287E-02 6.73539E-02-2.77678E-02-6.74935E-02
 -1       106 7.74707E+01-5.75846E-02-6.21598E-02-1.66277E-01 4.43264E-02 1.86906E-01
 -1       107 4.35782E+01 2.23797E-02 3.05688E-02-1.58800E-01 1.59092E-02-1.71096E-01
 -1       108 4.38865E+01-5.69954E-03 2.52512E-02-1.92884E-01-1.79015E-02 7.16686E-02
 -1       109 5.66844E+01 3.80071E-02 1.13835E-01-7.77395E-02-2.97693E-02-1.18955E-01
 -1       110 2.93760E+01-1.49603E-02 7.58391E-02 9.22552E-03 1.12537E-02 9.73936E-02
 -1       111 1.55796E+01-3.70548E-02 1.43704E-02-7.56105E-02 9.63755E-03 3.47127E-03
 -1       112 1.55215E+01-6.38237E-03-2.64143E-02 4.00485E-02-1.99164E-02-4.64718E-02
 -1       113 4.37821E+01 1.77727E-02-6.18762E-02-3.67150E-02-4.66579E-02 3.34294E-01
 -1       114 1.57125E+01-1.72634E-02 4.98198E-03-5.79493E-02 8.86580E-03-2.30311E-02
 -1       115 5.66100E+01 2.58839E-02 7.87836E-02-1.04596E-01 1.26868E-02 8.19645E-02
 -1       116 4.38533E+01-5.89308E-03 1.21377E-02-1.57940E-01 5.02247E-02-1.27222E-01
 -1       117 1.55630E+01-2.97942E-02-4.73068E-02 2.96369E-02-1.48919E-02 3.80032E-02
 -1       118 6.56256E+01 5.55662E-02 7.49397E-02-3.71187E-02 2.11562E-02-1.84581E-02
 -1       119 6.58335E+01 6.36174E-02-1.61167E-02 7.08511E-02 6.26038E-03-1.08877E-01
 -1       120 5.71890E+01 7.59916E-02 1.57819E-02 3.07602E-02 1.43246E-02 7.72423E-02
 -1       121 3.05282E+01-1.08910E-03-4.89654E-02 7.92068E-02-1.63951E-02 9.81452E-03
 -1       122 7.37818E+01-2.66429E-02-5.98764E-02 3.80639E-02 1.23449E-02 1.39700E-02
 -1       123 3.06426E+01 1.17623E-02-1.80175E-02 8.08819E-02 2.66152E-02-2.53766E-02
 -1       124 7.36867E+01-1.50252E-03-6.31054E-02 6.58737E-03-1.05654E-02-1.62437E-02
 -1       125 4.38721E+01 5.14214E-02 2.87244E-02 4.17784E-02 4.43865E-02-1.03409E-02
 -1       126 4.39736E+01 5.22269E-02 1.82705E-02 1.18079E-01 7.98187E-03-1.13553E-01
 -1       127 5.66586E+01 3.90611E-02 8.17630E-02-3.96124E-02 1.12331E-02 4.30946E-02
 -1       128 1.54752E+01 3.71332E-03 1.25132E-02-3.03418E-02 2.40017E-02-9.89965E-02
 -1       129 6.57449E+01 2.77735E-03-4.29595E-03-1.76241E-01 3.11349E-02-1.43875E-01
 -1       130 6.57897E+01-4.56535E-03-2.33106E-02 7.79634E-03-3.32237E-02 2.60646E-01
 -1       131 7.74422E+01-6.00507E-02-8.84701E-02 1.67380E-01-6.26398E-02 1.36663E-01
 -1       132 4.38713E+01 5.26703E-02-8.69731E-03 1.04591E-01-4.67941E-02-4.14046E-02
 -1       133 5.67372E+01 7.03185E-02 6.57576E-02 4.03292E-02-2.41301E-02-3.46651E-02
 -1       134 4.38899E+01 4.20905E-02-5.38594E-03 1.29618E-01 1.71983E-02 9.42700E-02
 -1       135 1.54703E+01-4.85219E-03-3.95932E-03-3.19906E-02-1.75883E-02 7.96782E-02
 -1       136 1.53263E+01-4.93198E-02-7.38431E-02 7.45615E-02-1.13033E-02-7.13015E-02
 -1       137 2.94047E+01-6.75490E-02-1.09528E-02 2.62103E-01 2.32990E-02 7.56436E-03
 -1       138 7.75767E+01-6.78542E-02-1.73853E-02 1.90524E-01-7.79831E-03 1.97482E-01
 -1       139 7.11685E+01-1.32154E-01 1.55915E-02 2.93959E-01 1.12475E-02 4.62319E-02
 -1       140 6.55677E+01-2.19956E-02-1.67958E-02-1.21625E-01 1.59633E-02-1.75339E-01
 -1       141 7.74936E+01-4.52832E-02-6.87673E-02 2.04537E-01 3.80086E-02-1.38291E-01
 -1       142 6.59104E+01-3.84433E-02-2.44834E-02-3.60804E-01 1.08594E-04 2.64573E-01
 -1       143 1.52942E+01-6.82525E-02-6.64075E-02 8.38769E-02 1.33689E-02 1.11445E-01
 -1       144 7.76281E+01-1.95255E-02-5.84116E-04 4.85983E-02 3.98780E-02-2.67377E-01
 -1       145 5.81844E+01-1.00618E-02 8.03651E-02 3.81942E-02-1.22840E-02-9.71555E-02
 -1       146 7.39432E+01-7.16168E-02 6.72072E-03 4.11597E-02 2.91101E-02-4.03362E-02
 -1       147 3.04266E+01-1.78589E-02-9.93141E-03-4.15421E-02-9.06584E-04-8.35876E-02
 -1       148 3.05462E+01-6.51843E-02-3.60771E-02 4.62814E-02-3.60471E-02-6.63966E-02
 -1       149 7.34352E+01 4.41338E-02-1.66053E-02-2.59311E-02-2.39889E-02-1.95925E-02
 -1       150 7.72177E+01 5.20733E-02-1.23397E-02 6.50094E-02 2.40407E-02 9.50647E-02
 -1       151 7.73822E+01-2.49288E-02-5.63384E-02-1.67541E-01-4.84594E-02-1.67551E-01
 -1       152 7.14053E+01 6.25448E-02-6.11331E-02-9.40745E-02 4.66471E-02 3.15252E-01
 -1       153 7.72084E+01-3.24873E-02-3.45253E-02-1.15715E-01 7.17495E-03-1.66327E-03
 -1       154 6.63945E+01-3.71781E-02 2.18350E-02 2.24903E-01 1.01379E-02 1.86080E-02
 -1       155 6.64619E+01 9.55346E-03 3.30085E-02-3.50516E-01 5.55569E-03-1.12080E-01
 -1       156 7.74725E+01-7.32979E-02-2.01118E-02 2.38899E-01 3.53700E-02-2.21396E-01
 -1       157 6.59015E+01-5.43505E-03-1.14323E-01 1.90940E-01-7.04314E-03 4.64627E-01
 -1       158 6.58956E+01-1.78868E-02 3.29858E-02-1.33360E-01-9.23636E-03 9.63022E-02
 -1       159 5.66915E+01 8.62968E-02 4.60127E-02-1.05977E-01-3.62551E-02-4.63012E-02
 -1       160 4.38683E+01 2.55777E-02-3.47881E-03 7.11706E-02-1.90229E-02-1.84101E-01
 -1       161 4.36238E+01 4.00058E-03 2.03775E-02-1.60816E-01 1.16078E-02-1.41890E-01
 -1       162 1.55141E+01-2.57832E-02-6.33011E-03-3.99461E-02-1.90537E-02 3.85852E-02
 -1       163 1.55736E+01 2.51889E-02-3.28131E-02 4.22908E-03 1.29459E-02-7.75550E-02
 -1       164 2.94183E+01 6.45418E-02-2.55736E-02 7.00139E-02 7.33951E-03 1.03254E-02
 -1       165 1.56773E+01 2.94285E-02-2.36798E-02-2.12761E-02 4.33580E-03-6.50942E-02
 -1       166 4.37445E+01-3.38520E-02 3.25240E-03 2.58202E-01-4.64400E-02-3.99948E-02
 -1       167 4.37763E+01-3.39854E-02 4.02912E-02-1.15675E-01 3.84290E-02-1.73478E-01
 -1       168 5.68054E+01 2.16248E-02 1.10766E-01 5.79496E-02 5.33266E-02 3.89290E-02
 -1       169 1.55295E+01-2.82750E-02-3.83195E-02 4.56094E-02-1.71207E-02 1.32838E-02
 -1       170 5.79673E+01 1.81389E-02 7.60697E-02-8.90376E-03 1.47745E-03 7.94637E-02
 -1       171 3.02097E+01-7.44047E-04 1.55498E-02-4.65254E-02-2.68267E-03 2.27905E-02
 -1       172 3.05794E+01-7.58891E-02-1.27165E-03 3.87638E-02-2.41307E-02 9.26140E-02
 -1       173 7.36700E+01-8.31226E-02-2.60843E-03 6.64279E-03-9.39557E-03 2.25628E-02
 -1       174 7.33722E+01-2.22939E-02 1.74612E-02-2.12564E-02 1.83031E-02 2.30808E-02
 -1       175 6.57327E+01-1.14761E-02 1.41076E-02-1.36556E-01 1.90783E-02-1.50650E-01
 -1       176 7.74342E+01-1.10992E-01-5.56290E-02 1.58764E-01-5.98473E-02 1.70562E-01
 -1       177 6.61548E+01-6.23156E-02-2.21431E-02 2.94114E-01-4.28649E-02 3.50205E-03
 -1       178 5.67745E+01 6.11965E-02 5.27596E-02 9.46644E-03 5.68832E-03 3.96228E-02
 -1       179 4.37897E+01 2.04866E-02-2.54313E-02 6.91236E-02-1.41952E-03 2.26030E-01
 -1       180 1.54314E+01 3.48778E-03 5.48471E-03-3.20949E-02-1.07325E-03-9.84233E-03
 -1       181 4.39547E+01 2.70606E-02 2.47910E-02-2.39030E-01-1.52451E-02-5.64454E-02
 -1       182 4.39256E+01-1.87851E-02 4.60408E-02-3.65779E-02-4.77709E-02 1.12254E-01
 -1       183 4.39442E+01-3.06673E-02 5.02505E-02 1.54706E-01 1.13936E-02 1.50631E-01
 -1       184 5.69135E+01 5.60837E-02 8.00230E-02 1.11530E-02-4.60809E-02 9.22817E-03
 -1       185 1.55018E+01-1.56169E-02-2.86201E-03 1.02947E-01-2.07944E-02-2.16397E-02
 -1       186 1.53011E+01-6.38136E-02-7.93487E-02-5.45033E-02-2.51680E-02 1.11516E-01
 -1       187 2.93385E+01 2.71492E-02-4.84690E-02 1.98327E-02-2.37965E-03 2.38465E-01
 -1       188 7.73718E+01 5.29278E-03-5.60570E-03-1.68554E-01 4.26885E-02 4.04983E-02
 -1       189 7.12525E+01 4.86586E-02-3.40728E-02-7.60477E-02 3.00813E-02 3.48855E-02
 -1       190 6.59002E+01-4.11121E-02-4.88119E-02 2.19176E-01 2.38297E-02-3.36041E-01
 -1       191 6.62116E+01 2.22378E-02 4.72173E-02-3.67101E-01-3.00558E-02 2.76294E-01
 -1       192 7.73455E+01-5.85051E-02-4.38538E-02-1.43173E-01 4.62009E-02 1.12802E-01
 -1       193 7.74611E+01 3.14397E-02-2.42846E-02 1.82266E-01 1.53899E-03-2.07182E-01
 -1       194 1.52165E+01-5.24768E-02-2.74553E-02 7.90370E-04 1.85952E-02 1.20066E-01
 -1       195 6.73675E+01-2.06868E-02 3.46775E-02 6.96396E-03-1.92639E-02-2.31031E-02
 -1       196 4.56383E+01-4.85376E-02-3.91238E-02 1.72492E-02-1.26010E-02 1.62132E-02
 -1       197 7.79318E+01 8.34392E-02 6.73040E-02 4.10583E-01-8.32078E-03 3.30211E-01
 -1       198 7.19718E+01 5.97511E-02 6.02870E-02 2.51806E-01 1.52422E-02-2.64990E-01
 -1       199 6.12576E+01 2.03803E-02-1.36553E-02-2.05197E-01-8.38092E-02-2.06889E-01
 -1       200 5.19850E+01 3.00485E-02-4.63395E-02-2.10352E-01-3.89027E-02 2.36902E-01
 -1       201 6.71068E+01 2.66277E-02 5.28906E-02 5.72480E-02-1.27605E-03-3.88859E-02
 -1       202 4.37071E+01-9.46572E-03-1.10793E-02-3.84199E-02 2.77082E-04-1.22854E-02
 -1       203 3.05096E+01-1.57683E-02-3.64063E-02 2.27388E-02-8.93239E-03 3.64363E-03
 -1       204 3.74214E+01-7.87814E-03-3.96196E-02-6.73500E-02-2.34925E-02 3.32442E-02
 -1       205 3.73065E+01 7.59021E-03-1.53952E-02-1.54449E-01-5.47123E-03-2.32763E-02
 -1       206 5.19200E+01-3.20337E-02 4.21957E-02 1.92002E-01-4.21052E-02-1.92360E-01
 -1       207 1.57619E+01-1.25907E-02-9.24634E-03-6.19790E-02-2.75788E-02-1.00360E-01
 -1       208 1.52376E+01-3.26383E-02-4.34980E-02 4.87024E-02 1.66737E-02-2.39124E-02
 -1       209 2.96029E+01 2.42605E-02-2.18831E-02-3.91225E-02 1.34568E-02 1.21161E-01
 -1       210 1.54361E+01-2.43631E-02-2.13414E-02 8.90442E-02 1.44208E-02 6.41204E-02
 -1       211 1.57299E+01-1.04171E-02-1.97461E-02-8.98330E-02-3.06334E-02-6.58968E-02
 -1       212 1.52644E+01-3.96855E-02-4.72218E-02-5.08501E-04 1.09917E-02 6.00094E-02
 -1       213 6.60384E+01 2.21783E-02 1.46978E-02-1.22969E-01 3.81857E-02 6.16735E-02
 -1       214 7.35203E+01 1.48786E-03-1.31992E-02 1.25915E-03 5.46715E-02 4.79470E-02
 -1       215 7.76919E+01 5.25138E-02-5.06445E-02 1.68522E-01-2.48096E-02 2.22543E-01
 -1       216 7.18364E+01 4.06785E-02 2.04911E-02-9.73535E-02-1.54304E-02 3.14799E-01
 -1       217 1.62895E+01-2.02620E-02-2.09625E-02 7.30123E-02-1.60667E-02 9.37327E-02
 -1       218 1.54102E+01-1.15148E-02-2.58774E-02 8.75460E-02-3.44946E-03 3.50878E-02
 -1       219 2.99021E+01 2.43130E-02-2.55422E-02 3.20681E-02-2.10532E-03-1.23801E-01
 -1       220 5.06555E+01 6.43520E-02-1.53275E-02-3.83541E-02 3.66413E-03 9.56189E-02
 -1       221 2.30162E+01-4.43824E-03-9.39708E-03-9.63609E-02 1.44781E-02-1.01794E-01
 -1       222 2.98936E+01-7.06273E-03 2.57962E-02-7.04496E-02 8.88664E-03 4.52738E-02
 -1       223 3.74594E+01-6.36270E-02 5.80069E-04 3.77886E-02-2.37882E-02-7.48190E-02
 -1       224 5.07091E+01-4.46905E-02 7.69964E-02 1.21468E-01 1.09898E-02-3.88105E-02
 -1       225 5.65757E+01 3.89678E-02 9.11298E-02-2.82004E-02 3.76580E-02-4.85721E-02
 -1       226 7.01272E+01 5.07635E-02 8.32487E-03-5.95579E-02 2.78489E-03-4.05668E-02
 -1       227 6.21903E+01 7.06720E-02 2.46699E-02-4.40582E-02-4.22122E-03 2.74252E-01
 -1       228 6.26664E+01-9.92487E-03 7.38750E-02 2.07444E-01-1.41069E-02-1.51258E-01
 -1       229 7.17961E+01 2.88910E-02 6.67216E-02-2.40437E-01 1.41298E-04 1.82310E-01
 -1       230 6.71006E+01 8.52033E-02 7.37063E-02-1.86053E-02-1.03987E-02-2.70861E-02
 -1       231 4.96221E+01 1.56693E-02 1.17715E-02-5.67406E-02-6.35860E-03-8.19622E-02
 -1       232 3.60062E+01-8.27730E-05 8.54880E-03-3.21004E-02 1.91148E-02-5.19045E-02
 -1       233 6.22048E+01 4.52591E-02 2.90803E-02-1.17635E-01-1.64335E-02 1.67470E-01
 -1       234 7.17989E+01 8.22575E-02-8.42347E-03 1.74981E-01-3.59884E-03-2.00541E-01
 -1       235 5.64982E+01 6.62712E-02 5.53492E-02-3.20742E-02 2.41357E-02-3.53897E-02
 -1       236 6.22104E+01-4.76241E-02 9.58477E-02 2.75647E-01-5.30330E-03-2.19957E-02
 -1       237 7.48634E+01 2.16185E-02 3.57636E-02-2.05478E-01 6.37895E-03-1.72066E-01
 -1       238 5.71481E+01-5.00317E-02 5.48265E-03 2.94505E-01 1.95195E-02 2.88019E-01
 -1       239 1.53715E+01 6.61340E-03-2.15472E-03 2.11361E-02-1.70101E-02-1.40810E-02
 -1       240 2.27394E+01 4.19010E-02-3.72259E-02-2.54632E-02 1.11914E-02 5.50019E-02
 -1       241 2.24492E+01 1.02326E-03-8.89620E-04 3.84485E-02 8.29284E-03 3.38338E-02
 -1       242 3.76174E+01-6.81046E-02-5.50274E-02 1.45542E-01-2.31321E-02 9.60799E-02
 -1       243 1.53926E+01 9.60485E-03-1.37027E-02-6.89542E-03-1.38755E-02 1.70696E-02
 -1       244 2.27461E+01-4.56937E-02 3.55477E-02 5.83056E-02 1.29671E-02-2.52001E-02
 -1       245 3.76518E+01-5.73252E-02-8.57106E-02 1.22479E-01-9.63654E-03 1.37111E-01
 -1       246 3.05763E+01-5.03395E-02-6.71368E-02 1.80011E-02-3.70947E-02-3.33474E-04
 -1       247 5.09793E+01-4.02069E-02 3.73471E-02 1.15355E-02 4.85730E-02-3.27291E-02
 -1       248 7.37325E+01-4.84110E-02-4.35333E-02-4.27965E-03-1.33475E-02-4.31386E-03
 -1       249 7.05393E+01-5.13685E-02-4.01014E-02 5.85207E-02-2.35114E-02 8.64398E-02
 -1       250 7.05668E+01-6.25881E-02-2.72399E-02 1.16801E-01-2.82075E-02 5.87724E-02
 -1       251 6.17193E+01 4.29392E-03 5.37807E-02 1.75815E-03 1.34346E-02-1.57359E-02
 -1       252 7.70708E+01-4.39100E-03-3.94599E-02-8.80051E-03-2.55050E-02-4.42171E-02
 -1       253 7.48752E+01-1.02984E-01 4.85249E-02 4.60739E-02-6.73208E-03-9.89779E-02
 -1       254 7.44924E+01-5.04757E-02-1.97496E-02-7.69088E-02-2.70579E-02-1.04548E-01
 -1       255 7.70501E+01-6.00958E-02-3.26148E-03-2.23772E-02-1.82991E-02-1.40609E-02
 -1       256 7.46521E+01 4.10947E-02-2.69513E-02-2.01565E-01 1.49558E-02-4.48758E-02
 -1       257 7.02633E+01-5.55442E-02 1.64147E-02-9.50598E-02-8.53176E-03-1.83018E-01
 -1       258 3.73151E+01-3.08605E-02 1.75639E-02-2.70964E-02-4.45641E-03-1.60547E-01
 -1       259 7.46490E+01 5.07615E-02-3.25943E-02-5.52873E-02-2.23731E-02 8.21576E-03
 -1       260 7.70643E+01-9.94699E-03-4.40532E-02 2.12384E-02 4.28211E-03 4.21657E-02
 -1       261 7.70048E+01-4.16925E-02-1.15546E-02-2.33574E-02 6.81999E-03 1.98232E-03
 -1       262 1.53257E+01-3.67262E-02-4.73549E-02 2.10568E-02 1.99615E-02-3.61841E-02
 -1       263 3.05389E+01-5.03348E-02-1.39843E-02 1.31158E-02-1.04675E-02 1.97023E-02
 -1       264 7.75502E+01 4.96159E-03-5.81847E-04 2.16933E-01 2.29256E-02-2.28196E-01
 -1       265 7.34475E+01 6.40137E-02-2.85553E-02 1.55466E-03-8.14446E-02-8.61983E-02
 -1       266 7.74038E+01 2.50863E-02-3.94871E-02 1.37960E-01 2.72369E-02 3.57936E-02
 -1       267 3.03888E+01-4.60816E-03-4.11164E-03-1.94554E-02 1.66377E-02-1.11217E-01
 -1       268 7.38100E+01-5.43555E-02-1.51908E-02 5.74370E-02 2.34235E-02 2.00768E-02
 -1       269 1.53385E+01-3.95645E-02-4.91480E-02-3.55804E-02 1.74781E-02 1.54151E-02
 -1       270 1.55982E+01 1.54721E-02 3.79980E-02-3.20646E-02-1.08103E-03 4.76722E-02
 -1       271 7.78447E+01-5.57235E-02 6.38881E-03-3.01542E-01 3.20377E-02 6.51910E-03
 -1       272 7.00132E+01-4.59480E-02 5.81314E-02 7.37396E-02 1.78062E-02-3.75522E-03
 -1       273 6.60168E+01 2.85732E-02 1.06131E-01-1.31139E-01-4.99121E-02-2.02924E-01
 -1       274 4.37275E+01-2.20182E-02 1.20555E-02-2.11550E-02 3.35305E-03-5.00406E-02
 -1       275 1.56120E+01 3.88737E-02 5.55052E-03 5.38756E-02-2.79038E-03-3.19773E-02
 -1       276 7.78376E+01 4.43885E-02-4.91940E-02 3.85499E-02 1.54328E-02-2.39370E-01
 -1       277 4.40890E+01 2.26741E-02 1.61931E-02-6.64764E-02 1.35862E-02 1.56590E-02
 -1       278 6.53837E+01-1.81739E-02 1.73858E-02 6.49792E-02 4.10197E-02-1.91269E-02
 -1       279 7.13751E+01 2.63158E-02 9.57175E-03-3.54192E-02 2.97301E-03-4.87349E-02
 -1       280 7.75505E+01-2.34225E-02-1.39348E-02-2.18251E-02 1.88415E-02 1.17397E-01
 -3
    1PSTEP                        13           1           1          
    1PGM                1.000000E+00                                  
    1PGK                9.244600E+11                                  
    1PHID                         -1                                  
    1PSUBC                         0                                  
    1PMODE                         5                                  
  100CL  105 1.53026E+05         280                     2    5MODAL      1
 -4  DISP        4    1
 -5  D1          1    2    1    0
 -5  D2          1    2    2    0
 -5  D3          1    2    3    0
 -5  ALL         1    2    0    0    1ALL
 -1         1 0.00000E+00 0.00000E+00 0.00000E+00
 -1         2 0.00000E+00 0.00000E+00 0.00000E+00
 -1         3 0.00000E+00 0.00000E+00 0.00000E+00
 -1         4 0.00000E+00 0.00000E+00 0.00000E+00
 -1         5 7.93427E+02 2.01660E+01 2.78740E+02
 -1         6-6.84182E+02 1.64485E+01 2.73878E+02
 -1         7 6.80944E+02 1.66758E+01 2.73201E+02
 -1         8-7.85451E+02 1.99509E+01 2.70358E+02
 -1         9 0.00000E+00 0.00000E+00 0.00000E+00
 -1        10 0.00000E+00 0.00000E+00 0.00000E+00
 -1        11 0.00000E+00 0.00000E+00 0.00000E+00
 -1        12 0.00000E+00 0.00000E+00 0.00000E+00
 -1        13 0.00000E+00 0.00000E+00 0.00000E+00
 -1        14 0.00000E+00 0.00000E+00 0.00000E+00
 -1        15 0.00000E+00 0.00000E+00 0.00000E+00
 -1        16 0.00000E+00 0.00000E+00 0.00000E+00
 -1        17 0.00000E+00 0.00000E+00 0.00000E+00
 -1        18 0.00000E+00 0.00000E+00 0.00000E+00
 -1        19 0.00000E+00 0.00000E+00 0.00000E+00
 -1        20 0.00000E+00 0.00000E+00 0.00000E+00
 -1        21 5.22092E+01 2.14431E+01 2.67730E+02
 -1        22 4.07539E+02 1.88583E+01 2.59757E+02
 -1        23-3.01152E+02 2.01191E+01 2.56872E+02
 -1        24 7.48166E+02 1.99217E+01 2.77456E+02
 -1        25 7.64131E+02 1.73593E+01 2.68793E+02
 -1        26 7.04814E+02 1.92673E+01 2.64041E+02
 -1        27-5.37732E+01 1.95212E+01 2.56650E+02
 -1        28 2.97007E+02 2.05062E+01 2.53492E+02
 -1        29-4.03410E+02 1.67231E+01 2.52380E+02
 -1        30-7.30524E+02 1.84245E+01 2.53711E+02
 -1        31-7.03456E+02 1.85289E+01 2.59731E+02
 -1        32-7.55721E+02 1.62720E+01 2.57277E+02
 -1        33 3.88588E+02-2.74117E+01-3.76861E+02
 -1        34 6.00892E+01-1.06384E+01-2.88593E+02
 -1        35 6.80461E+02-8.23314E+00-1.21889E+02
 -1        36-3.34921E+02-2.39164E+01-3.70182E+02
 -1        37-5.10495E+01-2.96066E+01-2.87733E+02
 -1        38-5.87514E+02-1.12971E+01-1.22827E+02
 -1        39 3.18956E+02-2.49194E+01-3.68907E+02
 -1        40 4.77130E+01-2.85973E+01-2.82183E+02
 -1        41 5.82681E+02-1.22413E+01-1.27838E+02
 -1        42-3.75468E+02-2.78055E+01-3.75088E+02
 -1        43-5.63729E+01-1.34770E+01-2.80665E+02
 -1        44-6.72952E+02-5.18687E+00-1.27068E+02
 -1        45 0.00000E+00 0.00000E+00 0.00000E+00
 -1        46 0.00000E+00 0.00000E+00 0.00000E+00
 -1        47 0.00000E+00 0.00000E+00 0.00000E+00
 -1        48 0.00000E+00 0.00000E+00 0.00000E+00
 -1        49 0.00000E+00 0.00000E+00 0.00000E+00
 -1        50 0.00000E+00 0.00000E+00 0.00000E+00
 -1        51 0.00000E+00 0.00000E+00 0.00000E+00
 -1        52 0.00000E+00 0.00000E+00 0.00000E+00
 -1        53 0.00000E+00 0.00000E+00 0.00000E+00
 -1        54 0.00000E+00 0.00000E+00 0.00000E+00
 -1        55 0.00000E+00 0.00000E+00 0.00000E+00
 -1        56 0.00000E+00 0.00000E+00 0.00000E+00
 -1        57 0.00000E+00 0.00000E+00 0.00000E+00
 -1        58 0.00000E+00 0.00000E+00 0.00000E+00
 -1        59 0.00000E+00 0.00000E+00 0.00000E+00
 -1        60 0.00000E+00 0.00000E+00 0.00000E+00
 -1        61 0.00000E+00 0.00000E+00 0.00000E+00
 -1        62 0.00000E+00 0.00000E+00 0.00000E+00
 -1        63 0.00000E+00 0.00000E+00 0.00000E+00
 -1        64 0.00000E+00 0.00000E+00 0.00000E+00
 -1        65 0.00000E+00 0.00000E+00 0.00000E+00
 -1        66 0.00000E+00 0.00000E+00 0.00000E+00
 -1        67 0.00000E+00 0.00000E+00 0.00000E+00
 -1        68 0.00000E+00 0.00000E+00 0.00000E+00
 -1        69 0.00000E+00 0.00000E+00 0.00000E+00
 -1        70 6.09529E+00 1.86399E+01 2.75588E+02
 -1        71-3.34247E+02 1.85869E+01 2.56754E+02
 -1        72-3.81932E+02 1.71198E+01 2.61615E+02
 -1        73 3.29368E+02 1.98354E+01 2.54283E+02
 -1        74 3.79220E+02 1.91984E+01 2.60415E+02
 -1        75-5.55886E+02 1.75651E+01 2.55374E+02
 -1        76-5.74441E+02 1.79122E+01 2.61578E+02
 -1        77-2.17128E+02 1.72703E+01 2.52792E+02
 -1        78-3.59753E+02 1.78660E+01 2.58253E+02
 -1        79-1.89331E+02 1.74543E+01 2.66191E+02
 -1        80-2.44282E+01 1.91022E+01 2.62699E+02
 -1        81 5.28112E+02 2.05365E+01 2.61529E+02
 -1        82 4.95633E+02 1.86835E+01 2.61515E+02
 -1        83 1.38204E+02 2.04681E+01 2.51939E+02
 -1        84 1.68548E+02 1.89550E+01 2.60622E+02
 -1        85 3.57029E+02 1.89794E+01 2.67711E+02
 -1        86 5.54501E+02 1.88812E+01 2.67060E+02
 -1        87 5.78928E+02 1.93928E+01 2.67314E+02
 -1        88 2.16394E+02 1.93586E+01 2.61049E+02
 -1        89 1.89496E+02 1.95019E+01 2.58557E+02
 -1        90 2.46802E+01 2.05517E+01 2.63426E+02
 -1        91-5.30764E+02 1.78603E+01 2.54349E+02
 -1        92-4.99701E+02 1.76728E+01 2.62947E+02
 -1        93-1.68236E+02 1.77148E+01 2.63417E+02
 -1        94-1.41318E+02 2.04644E+01 2.56387E+02
 -1        95 2.52074E+01-2.72519E+01-3.45837E+02
 -1        96-2.69319E+02-1.12157E+01-1.16700E+02
 -1        97 3.60211E+02-8.91554E+00-1.16680E+02
 -1        98 9.93627E+01-1.98127E+01-2.84831E+02
 -1        99-8.95980E+01-2.11293E+01-2.84467E+02
 -1       100 5.23487E+01-9.42716E+00-1.54082E+02
 -1       101 2.66902E+01-1.10579E+01-1.65511E+02
 -1       102 5.22484E+00-1.87179E+01-2.80887E+02
 -1       103 9.65883E+01-2.55207E+01-3.47311E+02
 -1       104-7.09870E+01-2.51906E+01-3.50355E+02
 -1       105-2.68347E+01-1.03464E+01-1.64368E+02
 -1       106-5.49089E+01-1.21413E+01-1.53878E+02
 -1       107-1.00548E+02-2.08555E+01-2.56599E+02
 -1       108-3.56374E+02-1.95132E+01-2.69493E+02
 -1       109-1.87777E+02-2.52421E+01-3.51950E+02
 -1       110 4.63081E+01-8.84282E+00-1.12815E+02
 -1       111-1.21796E+02 3.76648E+00 6.89660E+01
 -1       112-4.68553E+02 2.88487E+00 6.60058E+01
 -1       113 1.74366E+02-1.93826E+01-2.55858E+02
 -1       114 2.24440E+02 5.27968E+00 6.95267E+01
 -1       115 2.34684E+02-2.53242E+01-3.47541E+02
 -1       116 4.24215E+02-2.00722E+01-2.73388E+02
 -1       117 5.72148E+02 4.66726E+00 6.87187E+01
 -1       118 2.11766E+02-2.56545E+01-3.66998E+02
 -1       119-1.79445E+02-2.62227E+01-3.64229E+02
 -1       120-2.72937E+01-2.60557E+01-3.43921E+02
 -1       121 2.66772E+02-9.54841E+00-1.18195E+02
 -1       122 8.93643E+01-2.18153E+01-2.81584E+02
 -1       123-3.58900E+02-9.26934E+00-1.17059E+02
 -1       124-9.64381E+01-1.94746E+01-2.82496E+02
 -1       125-4.24026E+02-2.12644E+01-2.76886E+02
 -1       126-1.74693E+02-1.96030E+01-2.54091E+02
 -1       127-2.37863E+02-2.62612E+01-3.45238E+02
 -1       128-5.67271E+02 5.12159E+00 6.35314E+01
 -1       129-2.11852E+02-2.59777E+01-3.59929E+02
 -1       130-9.61587E+01-2.54845E+01-3.47031E+02
 -1       131-5.09530E+01-9.38205E+00-1.50654E+02
 -1       132 3.52375E+02-2.02889E+01-2.75490E+02
 -1       133 1.91484E+02-2.54156E+01-3.50945E+02
 -1       134 9.95733E+01-1.93633E+01-2.56088E+02
 -1       135 4.64513E+02 3.65841E+00 6.39963E+01
 -1       136 1.18808E+02 5.32407E+00 6.49220E+01
 -1       137-4.55943E+01-7.92799E+00-1.03991E+02
 -1       138 2.52990E+01-1.18905E+01-1.63360E+02
 -1       139-2.05669E+00-2.03216E+01-2.86459E+02
 -1       140 7.13396E+01-2.58009E+01-3.48520E+02
 -1       141 5.41258E+01-1.21847E+01-1.51701E+02
 -1       142 1.76840E+02-2.50852E+01-3.56975E+02
 -1       143-2.21156E+02 4.00499E+00 6.54259E+01
 -1       144-2.49165E+01-1.01938E+01-1.63812E+02
 -1       145 3.46415E+02-2.40453E+01-3.68629E+02
 -1       146 6.33333E+01-2.43297E+01-2.82647E+02
 -1       147 6.07931E+02-9.47483E+00-1.29570E+02
 -1       148 6.61503E+02-8.87312E+00-1.26004E+02
 -1       149 5.70664E+01-1.48753E+01-2.85608E+02
 -1       150-2.00825E+01-9.89890E+00-1.49026E+02
 -1       151-1.80741E+01-5.83761E+00-1.47548E+02
 -1       152 8.77015E+01-1.97110E+01-2.65729E+02
 -1       153-3.87618E+00-1.25570E+01-1.47587E+02
 -1       154 1.93118E+02-2.66533E+01-3.57281E+02
 -1       155 1.92766E+02-2.11618E+01-3.60298E+02
 -1       156-2.30456E+01-1.68066E+01-1.44466E+02
 -1       157 2.04108E+02-2.21882E+01-3.64181E+02
 -1       158 1.78562E+02-2.67015E+01-3.60841E+02
 -1       159 3.29389E+02-2.44829E+01-3.60052E+02
 -1       160 4.75261E+02-2.03999E+01-2.75302E+02
 -1       161 4.93335E+02-1.84183E+01-2.76213E+02
 -1       162 6.67791E+02 2.81269E+00 6.39223E+01
 -1       163 6.93963E+02 4.22035E+00 6.40187E+01
 -1       164 6.25533E+02-7.98908E+00-1.27215E+02
 -1       165 7.24997E+02 4.30750E+00 6.46880E+01
 -1       166 5.19863E+02-1.70331E+01-2.74606E+02
 -1       167 5.41153E+02-1.90871E+01-2.78080E+02
 -1       168 3.71661E+02-2.37234E+01-3.66887E+02
 -1       169 7.49026E+02 4.18302E+00 6.85573E+01
 -1       170-3.66491E+02-2.65168E+01-3.78617E+02
 -1       171-6.51752E+02-6.23678E+00-1.22400E+02
 -1       172-6.06835E+02-1.09273E+01-1.25550E+02
 -1       173-5.30428E+01-2.00626E+01-2.84034E+02
 -1       174-4.37035E+01-2.39627E+01-2.85501E+02
 -1       175-2.00856E+02-2.53152E+01-3.65018E+02
 -1       176 1.97148E+01-7.57407E+00-1.42420E+02
 -1       177-1.94280E+02-2.39756E+01-3.60143E+02
 -1       178-3.66332E+02-2.47867E+01-3.65857E+02
 -1       179-5.34085E+02-1.74763E+01-2.74113E+02
 -1       180-7.41661E+02 6.03241E+00 6.36105E+01
 -1       181-5.21513E+02-1.72052E+01-2.71530E+02
 -1       182-4.79254E+02-1.99285E+01-2.75317E+02
 -1       183-4.98404E+02-1.99760E+01-2.76785E+02
 -1       184-3.45390E+02-2.44060E+01-3.64433E+02
 -1       185-6.70017E+02 2.53676E+00 6.61874E+01
 -1       186-6.86349E+02 3.43511E+00 6.31067E+01
 -1       187-6.19013E+02-7.92390E+00-1.10637E+02
 -1       188 1.34608E+01-1.37555E+01-1.49096E+02
 -1       189-9.00832E+01-1.85486E+01-2.79435E+02
 -1       190-1.76327E+02-2.76140E+01-3.62482E+02
 -1       191-1.87057E+02-2.72168E+01-3.63268E+02
 -1       192 2.60170E+01-1.57822E+01-1.46723E+02
 -1       193 2.53605E+01-1.06570E+01-1.50644E+02
 -1       194-7.12149E+02 5.04846E+00 6.10965E+01
 -1       195-9.46531E+01-2.49092E+01-3.53642E+02
 -1       196 1.48836E+02-1.82928E+01-2.61595E+02
 -1       197 4.72757E+01-1.16384E+01-1.62749E+02
 -1       198 6.26800E+01-1.99164E+01-2.84384E+02
 -1       199 1.57275E+02-2.47980E+01-3.51590E+02
 -1       200 8.36327E+01-2.34802E+01-3.11070E+02
 -1       201 1.06665E+02-2.35790E+01-3.22863E+02
 -1       202 3.68191E+02-1.97476E+01-2.72777E+02
 -1       203 4.34814E+02-1.01169E+01-1.24734E+02
 -1       204 2.04040E+02-1.38210E+01-1.92198E+02
 -1       205 3.59353E+02-1.32668E+01-2.02218E+02
 -1       206 2.94982E+02-2.23687E+01-3.24867E+02
 -1       207 1.49550E+02 4.61398E+00 6.63618E+01
 -1       208 3.04431E+02 4.40512E+00 6.59212E+01
 -1       209-4.74618E+02-7.57465E+00-1.16837E+02
 -1       210-5.46155E+02 4.51053E+00 6.20917E+01
 -1       211-3.40296E+02 3.38370E+00 6.78664E+01
 -1       212-4.95505E+02 3.63632E+00 6.53145E+01
 -1       213-1.87685E+02-2.59129E+01-3.59027E+02
 -1       214-9.75194E+01-2.31767E+01-2.85535E+02
 -1       215 4.67052E+01-1.07359E+01-1.55355E+02
 -1       216 1.15903E+02-1.87302E+01-2.81701E+02
 -1       217-1.99606E+02 4.61368E+00 6.63232E+01
 -1       218-3.80538E+02 4.64392E+00 6.44670E+01
 -1       219-2.25873E+01-7.72978E+00-1.13296E+02
 -1       220 5.22356E+01-2.23567E+01-3.01744E+02
 -1       221 9.23198E+01-1.97220E+00-2.73433E+01
 -1       222-3.12718E+02-8.04530E+00-1.16435E+02
 -1       223-2.06832E+02-1.35468E+01-1.91960E+02
 -1       224-1.74618E+02-2.24945E+01-3.08001E+02
 -1       225-1.94447E+02-2.48589E+01-3.47173E+02
 -1       226-8.98968E+01-2.35037E+01-3.23270E+02
 -1       227-3.70836E+01-2.58809E+01-3.49573E+02
 -1       228-2.26772E+02-2.64947E+01-3.70866E+02
 -1       229 9.76415E+01-2.05319E+01-2.82380E+02
 -1       230 3.82196E+01-2.30444E+01-3.19819E+02
 -1       231-2.05612E+02-2.25217E+01-3.04918E+02
 -1       232-8.31600E+01-1.39329E+01-1.88185E+02
 -1       233-6.65647E+01-2.62452E+01-3.56034E+02
 -1       234 6.67771E+00-1.96651E+01-2.85330E+02
 -1       235 1.95860E+02-2.50323E+01-3.47175E+02
 -1       236 1.42517E+02-2.48730E+01-3.54475E+02
 -1       237-2.55876E+01-1.62825E+01-2.34620E+02
 -1       238 9.32275E-01-2.34989E+01-3.34415E+02
 -1       239 5.46852E+02 4.72583E+00 6.60676E+01
 -1       240 4.20265E+02-1.20588E+00-3.09084E+01
 -1       241 2.68131E+02-1.77301E+00-2.37022E+01
 -1       242 3.80258E+02-1.34602E+01-2.02389E+02
 -1       243 3.81591E+02 4.77643E+00 6.74883E+01
 -1       244 1.12537E+02-2.21113E+00-2.32385E+01
 -1       245 2.48571E+02-1.41667E+01-1.93618E+02
 -1       246 5.06718E+02-8.82298E+00-1.21153E+02
 -1       247 3.16283E+02-2.26114E+01-3.19907E+02
 -1       248-1.09615E+02-1.88117E+01-2.81333E+02
 -1       249-1.09021E+02-2.32155E+01-3.23964E+02
 -1       250-1.50977E+02-2.22013E+01-3.27883E+02
 -1       251-2.32874E+02-2.65634E+01-3.63616E+02
 -1       252-4.49827E+01-1.01003E+01-1.56696E+02
 -1       253-2.44286E+01-1.60832E+01-2.29676E+02
 -1       254-5.82064E+01-1.63782E+01-2.25216E+02
 -1       255-4.75464E+01-1.10415E+01-1.48423E+02
 -1       256-8.08460E+01-1.73378E+01-2.21160E+02
 -1       257 3.15120E+01-2.32474E+01-3.24596E+02
 -1       258-4.85208E+01-1.41879E+01-1.90340E+02
 -1       259-5.18783E+01-1.60472E+01-2.29849E+02
 -1       260 3.83921E+01-1.19854E+01-1.54790E+02
 -1       261 3.83556E+01-1.11266E+01-1.50686E+02
 -1       262 4.91001E+02 4.34661E+00 6.44200E+01
 -1       263-4.38116E+02-1.05898E+01-1.21578E+02
 -1       264-3.95693E+01-1.21519E+01-1.55404E+02
 -1       265 1.13680E+02-1.76212E+01-2.86617E+02
 -1       266-4.07097E+01-1.20558E+01-1.60356E+02
 -1       267-5.00941E+02-8.03117E+00-1.22106E+02
 -1       268 9.44595E+01-2.22928E+01-2.81146E+02
 -1       269-3.08778E+02 3.65950E+00 6.81330E+01
 -1       270 3.33206E+02 4.70852E+00 6.76603E+01
 -1       271 4.02006E+01-1.35461E+01-1.55160E+02
 -1       272 9.11104E+01-2.21398E+01-3.23120E+02
 -1       273 2.07254E+02-2.38750E+01-3.56984E+02
 -1       274-2.40593E+02-2.01590E+01-2.63511E+02
 -1       275-1.49505E+02 4.42974E+00 6.90235E+01
 -1       276-2.06754E+01-1.13359E+01-1.64139E+02
 -1       277-4.08570E+02-1.91464E+01-2.69393E+02
 -1       278 1.37739E+02-2.57950E+01-3.51362E+02
 -1       279-1.07255E+02-2.15930E+01-2.81696E+02
 -1       280 2.52714E+01-1.15391E+01-1.60634E+02
 -3
    1PSTEP                        14           1           1          
    1PGM                1.000000E+00                                  
    1PGK                9.244600E+11                                  
    1PHID                         -1                                  
    1PSUBC                         0                                  
    1PMODE                         5                                  
  100CL  105 1.53026E+05         280                     2    5MODAL      1
 -4  STRESS      6    1
 -5  SXX         1    4    1    1
 -5  SYY         1    4    2    2
 -5  SZZ         1    4    3    3
 -5  SXY         1    4    1    2
 -5  SYZ         1    4    2    3
 -5  SZX         1    4    3    1
 -1         1-2.06231E+06 7.61273E+04 8.76103E+05-2.22072E+06 8.25950E+05-1.03902E+07
 -1         2 1.83932E+06 4.44687E+04-8.90022E+05 7.41573E+05 7.81310E+05-1.00472E+07
 -1         3-2.13242E+06 1.22968E+05 7.93851E+05 8.33272E+05-7.38999E+05-9.78040E+06
 -1         4 2.23570E+06-1.34556E+05-7.28558E+05-2.32034E+06-9.64627E+05-9.80429E+06
 -1         5 2.21714E+06-1.65969E+05-5.96428E+05 5.37761E+04 1.40861E+05 6.66410E+05
 -1         6-1.65336E+06 1.73293E+05 5.38886E+05 2.21735E+05 2.29397E+04 5.89664E+05
 -1         7 1.62085E+06-2.12711E+05-4.47448E+05 2.99399E+05 1.73032E+04 6.40235E+05
 -1         8-2.01901E+06 2.22458E+05 4.28458E+05-1.33602E+05-7.85928E+03 6.76351E+05
 -1         9-4.60612E+05 8.12130E+03 5.61404E+04-9.72748E+05-4.98541E+04-1.54327E+07
 -1        10 4.69714E+06 1.22288E+00 5.00678E+00-8.46293E+05 1.65066E+00-1.41741E+07
 -1        11-5.91106E+06 7.11353E-01-4.59481E+00-9.53830E+05 9.33339E-01-1.40809E+07
 -1        12-3.84655E+06-1.57027E+04-4.88613E+05-6.67703E+05 7.71589E+02-1.21848E+07
 -1        13-1.06704E+07 1.77902E+00 6.19237E+00-6.63902E+05 1.57999E+00-1.23015E+07
 -1        14-9.37418E+06 1.86151E+00 4.08170E+00-1.37588E+06-2.24098E+00-1.20583E+07
 -1        15 3.63746E+05 1.80526E+04-2.16155E+04-9.36634E+05-1.96951E+05-1.53593E+07
 -1        16 5.55876E+06 4.56984E-02 5.10725E+00-1.05339E+06 1.13590E+00-1.39414E+07
 -1        17-4.42400E+06-2.73671E-01-5.76372E+00-7.87076E+05 5.73381E-02-1.38573E+07
 -1        18-9.24352E+05-2.38344E+05 6.93155E+05-1.07733E+06 2.48917E+05-1.08945E+07
 -1        19 1.17167E+07-2.24505E+00-5.88807E+00-1.15662E+06 1.32656E+00-1.23692E+07
 -1        20 9.55156E+06-2.70771E+00-2.33429E+00-9.03849E+05-1.62714E+00-1.19599E+07
 -1        21-1.24723E+05-9.40331E+04-1.77784E+05 1.19654E+05 3.32603E+04 1.98664E+06
 -1        22 3.94427E+05-1.73463E+04-4.40403E+05 1.29596E+05 1.68034E+05 1.15871E+06
 -1        23-5.52879E+05-1.19720E+05 2.45938E+05 2.06534E+05-2.05221E+05 1.18833E+06
 -1        24 3.30164E+06 1.26987E+05-5.00689E+05 1.00625E+05-5.71093E+04 9.66738E+05
 -1        25 1.00111E+06-9.77476E+03-5.87978E+05 2.51111E+05 7.78177E+04 4.70722E+05
 -1        26 6.88629E+05-1.29834E+05-9.28525E+05-1.27468E+04-1.42520E+04 4.75848E+05
 -1        27-1.89618E+05 3.06760E+04-5.12722E+04 5.12815E+04-1.89712E+05 1.49687E+06
 -1        28 6.18420E+05 5.14442E+04-6.62017E+05 3.56190E+04 2.83540E+04 1.14079E+06
 -1        29-6.78133E+05-5.03988E+03 5.48290E+05 1.74197E+04 5.42303E+04 1.09805E+06
 -1        30-2.48265E+06-5.62175E+04 3.66698E+05 7.12590E+04-4.81893E+04 9.31687E+05
 -1        31-6.69329E+05 7.90415E+04 4.33375E+05 3.38072E+05-3.22751E+05 4.61540E+05
 -1        32-1.08487E+06 6.10562E+04 3.44062E+05-1.65201E+05 2.48818E+05 5.62691E+05
 -1        33 2.79982E+07 1.06503E+05 8.85158E+05 8.54393E+03-1.72409E+05-2.50798E+05
 -1        34 1.55434E+07-4.95484E+05 6.63081E+05-5.27059E+05 4.95962E+05-2.96139E+06
 -1        35 1.61934E+07-6.76799E+04 1.44604E+04-3.71358E+05-8.03450E+04 3.35440E+05
 -1        36-2.54320E+07 6.04008E+04-2.05975E+05-1.61354E+05-1.72249E+05 4.42632E+05
 -1        37-1.33967E+07 6.67326E+05-7.04752E+05 2.74158E+04 4.83049E+05-3.02152E+06
 -1        38-1.39703E+07 1.97761E+05-2.82523E+05 5.22177E+05-1.27632E+05 7.19458E+05
 -1        39 2.52851E+07-9.47313E+04 1.20310E+05 1.52636E+04 1.43774E+05 1.23706E+05
 -1        40 1.27581E+07-5.57423E+05 1.04421E+06-2.10178E+05-1.56941E+05-2.67153E+06
 -1        41 1.44794E+07-2.32389E+05-1.01113E+05 3.17457E+05-2.17899E+05 9.09754E+05
 -1        42-2.78846E+07-5.57957E+04-9.81706E+05 6.75869E+04 2.08487E+05 2.79924E+05
 -1        43-1.50186E+07 3.88718E+05-8.16152E+05-2.05709E+05-3.05687E+05-2.35404E+06
 -1        44-1.63992E+07 1.87991E+05 2.51974E+05-1.09825E+05 3.28125E+04 8.02112E+05
 -1        45 8.44884E+05 7.37369E+03-1.27674E+05-9.68784E+05 2.62647E+05-1.57950E+07
 -1        46-5.13870E+06-4.07456E+04 6.74753E+05-7.04386E+05-2.96033E+05-1.50447E+07
 -1        47 7.52944E+06-2.62193E+03-1.65253E+06-1.48832E+06-4.26242E+05-1.53655E+07
 -1        48-8.13365E+06 1.13742E+05 1.02749E+06-8.82695E+05 1.92520E+05-1.42299E+07
 -1        49 6.17166E+06-7.93310E+04-2.33081E+05-1.09862E+06-1.56209E+05-1.33259E+07
 -1        50-3.40156E+06-6.18766E+04 3.36661E+05-3.95145E+05 1.37398E+05-1.24667E+07
 -1        51-3.63921E+06 5.72400E-01-4.00443E+00-9.46992E+05 7.07625E-01-1.45991E+07
 -1        52-1.81975E+05 5.65561E-01 5.53409E+05-9.56652E+05 3.36260E+04-1.55181E+07
 -1        53-2.95297E+06-1.35371E+04-3.04118E+05-1.10031E+06-1.58825E+05-1.50424E+07
 -1        54 4.24452E+06 1.52416E+04-5.50995E+05-9.18188E+05-2.67877E+05-1.53287E+07
 -1        55 4.00322E+06 5.39580E+04-3.81768E+05-1.47640E+06 1.63912E+05-1.27159E+07
 -1        56 4.19668E+06-2.56757E+04-3.40594E+05-1.29574E+06 1.83135E+05-1.57915E+07
 -1        57 1.51923E+06-6.45053E+02-1.06561E+06-6.00162E+05-5.33135E+05-1.35355E+07
 -1        58 8.95563E+05 9.17030E+03 7.07389E+00-1.16182E+06 5.45960E+05-1.40057E+07
 -1        59 4.50001E+05 8.75474E-02 3.69941E+00-9.21486E+05-1.16285E+00-1.25559E+07
 -1        60 2.51827E+06 6.68237E+04-3.16556E+05-3.05322E+05-1.24871E+05-1.19251E+07
 -1        61 5.26962E+06-2.91072E+03-2.69594E+05-1.37709E+06-1.36255E+05-1.39382E+07
 -1        62-2.53517E+06-1.19921E+05 8.10978E+05-2.07534E+06-3.45532E+05-1.33161E+07
 -1        63-6.30469E+06 1.45012E-01-5.89569E+00-1.12883E+06-7.83491E-01-1.48777E+07
 -1        64-3.62738E+06 8.89961E+04 1.95840E+05-9.33453E+05 1.42422E+05-1.45721E+07
 -1        65-3.92209E+06-3.09555E+04 4.60706E+05-1.35192E+06-2.14880E+05-1.19783E+07
 -1        66-3.88981E+06-2.32868E-01-5.98407E+00-1.07765E+06-9.68660E-01-1.50940E+07
 -1        67 2.25188E+05 4.43977E-02-3.37911E+05-1.03685E+06-1.50426E+04-1.52039E+07
 -1        68-5.78291E+06-1.89257E+04 7.74471E+05-2.98627E+05 3.77775E+05-1.26153E+07
 -1        69 3.04137E+06 9.98031E-02 5.71045E+00-1.03745E+06 8.07248E-01-1.41885E+07
 -1        70 1.08586E+06-3.03049E+04-1.37926E+05 2.27586E+05-2.09800E+05 2.18866E+06
 -1        71 6.47875E+05-1.44190E+05 4.25578E+04-3.03578E+05-6.98738E+03 9.09088E+05
 -1        72 9.76537E+05 4.79621E+04 1.16474E+05 4.95276E+05 1.91245E+05 1.94414E+06
 -1        73-6.34169E+05 2.33532E+04-4.24790E+05-7.16344E+04-9.91338E+04 1.06439E+06
 -1        74-7.80793E+04-2.06747E+04-9.05298E+05-3.54123E+04-2.03520E+05 1.35943E+06
 -1        75-4.06737E+05-6.07652E+04 1.58110E+05 1.81740E+05 4.17057E+05 1.62807E+06
 -1        76-4.26877E+05 1.22493E+05 5.98349E+05 2.10713E+05 1.02520E+05 9.79375E+05
 -1        77 6.57610E+05-7.00593E+03-2.94122E+05 1.97019E+05-4.45217E+05 1.33894E+06
 -1        78 1.63561E+06 4.21349E+03-8.75090E+05 2.09037E+05-5.03166E+05 1.61544E+06
 -1        79 2.70431E+06 1.49002E+04-1.00393E+06 2.76845E+05-1.25188E+05 1.96917E+06
 -1        80 2.48068E+05 3.52514E+04 1.06101E+05-4.61517E+03-4.74740E+05 1.71940E+06
 -1        81 1.37340E+05 3.64883E+04-8.63561E+05-2.33370E+05-5.16845E+05 9.42600E+05
 -1        82 4.91195E+05-6.47399E+04-1.12599E+06 1.04941E+05 2.87737E+05 7.61927E+05
 -1        83-7.96313E+05 7.20178E+04 3.79530E+05-1.34301E+05-1.43640E+05 1.15135E+06
 -1        84-1.41215E+06 5.46233E+04 5.93961E+05 1.16786E+05-5.75714E+05 1.01647E+06
 -1        85 8.69950E+05 3.09351E+04-7.47398E+04 6.75555E+05 2.06749E+05 2.13752E+06
 -1        86 1.40786E+06 1.05506E+05-1.10304E+06 1.26958E+05 1.53936E+05 9.89883E+05
 -1        87 5.74923E+05-8.59483E+04-1.08667E+06 8.47638E+04-1.85366E+05 8.74556E+05
 -1        88-4.81274E+05-4.88459E+04-3.15954E+04 4.33478E+04-2.42998E+05 1.73611E+06
 -1        89-2.21850E+04-7.38944E+04 3.89547E+05 2.43589E+05 4.26730E+05 2.77092E+06
 -1        90-8.00819E+04-1.12125E+05 6.04053E+05 3.89226E+05 1.34554E+05 1.75145E+06
 -1        91-1.64304E+05-7.51649E+04-4.72197E+04-1.24375E+05-6.70507E+04 7.72659E+05
 -1        92-4.10775E+05 1.92039E+02 9.41451E+05-6.11179E+04-2.99670E+05 7.01167E+05
 -1        93 1.28199E+06-1.31049E+05-7.46713E+05 7.27965E+04 3.12339E+05 4.59291E+05
 -1        94 9.67544E+05-1.39094E+05-6.85746E+05-7.84611E+04-1.40840E+05 1.26902E+06
 -1        95 2.08465E+06 7.28644E+04-2.75432E+05-1.78911E+04 1.10931E+05-5.90586E+06
 -1        96-4.78468E+06 1.63072E+05-7.31459E+05 5.87908E+04 2.82192E+04 1.16311E+06
 -1        97 7.18433E+06 4.81547E+04 9.87487E+05 1.09837E+04 1.68366E+05 1.37841E+06
 -1        98 9.52997E+06-5.52576E+04 4.94440E+05 2.46795E+05 4.19717E+03-1.08407E+07
 -1        99-7.12582E+06-4.16286E+04 2.05876E+05-4.57026E+05-2.69440E+04-1.09238E+07
 -1       100 5.85888E+06-4.58311E+04 8.04038E+04-8.78847E+05 2.03681E+05-1.03883E+07
 -1       101 5.44887E+06-1.47791E+05-6.54693E+05-4.23164E+05-1.33839E+05-1.29705E+07
 -1       102 1.00827E+06-5.35587E+04-4.30329E+04-6.29361E+05-6.54600E+04-1.18059E+07
 -1       103 5.88445E+06 3.32217E+04 8.08454E+05-1.15302E+05 4.18768E+05-8.75286E+06
 -1       104-2.66854E+06 1.25171E+04-6.10288E+05-8.82188E+04 2.43304E+05-8.68637E+06
 -1       105-4.49979E+06-9.60783E+04 7.40590E+05-6.04366E+05-9.90091E+04-1.30829E+07
 -1       106-4.78758E+06-1.00080E+05-1.32100E+05 4.11050E+04 3.01918E+05-1.02546E+07
 -1       107-1.28097E+06 1.06958E+05-1.05696E+06 2.57599E+05-3.54037E+05-1.44660E+06
 -1       108-1.38977E+07-1.14757E+05-4.64442E+05 3.10195E+05-2.07208E+05 3.34040E+05
 -1       109-9.44764E+06 2.64887E+04-9.73763E+05 6.87635E+04 4.00523E+05-2.98321E+06
 -1       110 1.08005E+06-6.63535E+04-1.03344E+05 6.02056E+04 2.04055E+05 1.59228E+04
 -1       111-1.78279E+06 7.22672E+04-3.20771E+05-1.24551E+05 6.47138E+04 1.46427E+06
 -1       112-3.50819E+06 9.15247E+04-2.30760E+05 1.40700E+05 3.18416E+05 8.98144E+05
 -1       113 4.60160E+06-8.11084E+03 1.04755E+06 2.49923E+04-1.46787E+05-1.40925E+06
 -1       114 2.77809E+06-6.32584E+04 1.25616E+05 1.97669E+05 1.49360E+05 1.60447E+06
 -1       115 1.27841E+07 4.87402E+04 1.24094E+06-1.31181E+05-5.49120E+04-3.22803E+06
 -1       116 1.69289E+07 7.39896E+04 1.03681E+06-7.32694E+04-1.54953E+05 2.89222E+05
 -1       117 5.09947E+06-4.73026E+03 8.86213E+04-1.30055E+04 2.79362E+05 1.08221E+06
 -1       118 1.87794E+07 6.78496E+04 1.03275E+06 2.78087E+05 7.52557E+04-5.34401E+06
 -1       119-1.60926E+07 1.21347E+05-2.85744E+05-6.99206E+05-2.87560E+04-5.05217E+06
 -1       120-2.35780E+06-6.37410E+04 5.17819E+05-1.75417E+05-1.56682E+04-5.37950E+06
 -1       121 3.95792E+06 1.21970E+04 1.10591E+06 2.12972E+05 1.55721E+04 1.29741E+06
 -1       122 8.10064E+06-3.14177E+04-7.63894E+05-5.15772E+05-3.69169E+04-1.06469E+07
 -1       123-6.70330E+06-1.61433E+05-1.21407E+06 5.97345E+04-5.64751E+04 1.23433E+06
 -1       124-1.03255E+07-8.30212E+03 6.07834E+05 2.23994E+05-3.08416E+04-1.10658E+07
 -1       125-1.67999E+07-2.10695E+05-1.40860E+06-1.58890E+05-2.33144E+05 5.54138E+05
 -1       126-4.17512E+06-1.16568E+05-1.34856E+06-1.75437E+05 6.06236E+04-1.42785E+06
 -1       127-1.27581E+07-5.61983E+04-1.24665E+06 5.70045E+04-1.19350E+05-3.23280E+06
 -1       128-4.68125E+06-3.06864E+04-4.61250E+05-1.49261E+05-1.62455E+05 1.00590E+06
 -1       129-1.90464E+07 1.04552E+05-4.86495E+05 3.14562E+05 4.08813E+05-5.09828E+06
 -1       130-6.63445E+06 1.48220E+04-2.37075E+05-2.25778E+05-4.92469E+04-8.65851E+06
 -1       131-5.82996E+06-9.72611E+04 2.52427E+05-1.10902E+06-5.04394E+05-1.02310E+07
 -1       132 1.40219E+07 2.15488E+04 7.69015E+05 3.32146E+05-1.36384E+05 5.45606E+05
 -1       133 9.70292E+06 1.35762E+04 9.99430E+05 3.22520E+05-3.57559E+05-3.35307E+06
 -1       134 7.38397E+05-4.77816E+04 1.48087E+06 8.07481E+04 5.61983E+04-1.62391E+06
 -1       135 3.33658E+06-2.50662E+04 4.85095E+05 2.70486E+05-2.98115E+05 9.99808E+05
 -1       136 1.44635E+06 6.33977E+04 2.37761E+05-1.94397E+05-6.38921E+04 1.32994E+06
 -1       137-1.05917E+06-1.75818E+04 1.54688E+05 1.48251E+04 4.41062E+05-4.43704E+04
 -1       138 4.65580E+06-3.65377E+04-9.81893E+05-7.37673E+05-2.86018E+05-1.30008E+07
 -1       139-1.09173E+06-8.56357E+02 1.19404E+05-5.11947E+05-2.95180E+05-1.18708E+07
 -1       140 3.02305E+06-3.69763E+04 3.84686E+05-5.47375E+05 8.95996E+04-8.86364E+06
 -1       141 4.67132E+06 1.06676E+05-4.08691E+04 5.35177E+05-4.91539E+05-1.00040E+07
 -1       142 1.61688E+07-9.40278E+04-2.51854E+05-4.97571E+05 4.71615E+05-4.71802E+06
 -1       143-2.64896E+06-6.22480E+04-5.04910E+05 3.73086E+05 3.67435E+04 1.16636E+06
 -1       144-5.16033E+06 7.56793E+04 1.00868E+06-4.41958E+05-1.17652E+05-1.30814E+07
 -1       145 2.44984E+07-1.71254E+05 8.24476E+05-7.75086E+05 1.32530E+05-3.98715E+05
 -1       146 1.58759E+07-6.07369E+04-2.83282E+05-6.87124E+05 2.38314E+05-5.45146E+06
 -1       147 1.44647E+07-1.92622E+05 6.19472E+05-7.70469E+03 9.87371E+04 1.24867E+06
 -1       148 1.58631E+07 9.06136E+04 6.55182E+05 2.97738E+04-6.16572E+04 9.76764E+05
 -1       149 1.89616E+07-3.52041E+05-9.26309E+05-1.10950E+05-3.79099E+05-7.19241E+05
 -1       150 7.29595E+06-3.25491E+05-1.35491E+06 6.07606E+05-4.00848E+05-4.88700E+06
 -1       151 6.53930E+06-1.78261E+05-3.88020E+05-1.49292E+06 8.01209E+04-5.38070E+06
 -1       152 1.38565E+07-2.56728E+05-1.27939E+06-7.42426E+05 2.31550E+05-5.55124E+06
 -1       153 5.78494E+06-7.85219E+04-6.52348E+05-1.29309E+06 2.41212E+05-8.92139E+06
 -1       154 2.08042E+07-2.14939E+05 3.31214E+05-1.01720E+06-3.43776E+05-3.54689E+06
 -1       155 2.28404E+07-2.40944E+05 8.14486E+05-9.26905E+04 6.23613E+05 1.13033E+06
 -1       156 6.16580E+06-1.66158E+05-7.67104E+04-5.06648E+05 3.08639E+04-6.02594E+06
 -1       157 2.72289E+07-1.54004E+05-1.29343E+06-2.24790E+05-6.86008E+05-1.56082E+05
 -1       158 2.15446E+07-8.17733E+04 1.91560E+05-5.30180E+05 3.78811E+05-2.31227E+06
 -1       159 2.48995E+07-3.49638E+04 8.52102E+05-3.08419E+05-4.39873E+04-5.92864E+05
 -1       160 2.19782E+07-9.32998E+04-6.50250E+05 1.27113E+03 2.49044E+05 3.51352E+05
 -1       161 2.27968E+07-1.78453E+05-1.56561E+05-2.65777E+05-1.94641E+05 7.41158E+05
 -1       162 7.78017E+06-2.47442E+05 5.36232E+05 2.00156E+05 6.82201E+04 7.54335E+05
 -1       163 8.65651E+06-4.57541E+04 2.64101E+05-1.28148E+05 1.33005E+04 1.04372E+06
 -1       164 1.60699E+07-9.37165E+04 6.04504E+05-3.51711E+05-3.07214E+04 1.41101E+06
 -1       165 9.04417E+06 1.62531E+05 2.29461E+05 1.49434E+04-1.22242E+05 6.98088E+05
 -1       166 2.29204E+07 1.16044E+04 1.92568E+05-5.30543E+05 1.77418E+05 8.37016E+05
 -1       167 2.29395E+07 1.60554E+05 2.86098E+05 1.08034E+05-1.65258E+05 3.05187E+05
 -1       168 2.68126E+07 1.34653E+05 1.01556E+06-6.82377E+05 4.02805E+04-4.49922E+04
 -1       169 8.61381E+06-1.07225E+05 3.91685E+05 1.37915E+05 3.62679E+03 7.48077E+05
 -1       170-2.38296E+07 1.02627E+05-1.31409E+06-2.64549E+05 8.60996E+04-4.43896E+05
 -1       171-1.60995E+07 2.76999E+04-1.10389E+05-2.66996E+05-8.28418E+04 3.85113E+05
 -1       172-1.45206E+07 5.49225E+04-7.22032E+05 2.49383E+05 9.97330E+03 1.85688E+06
 -1       173-1.72736E+07 4.00530E+05 5.58649E+04-7.01331E+05 5.97413E+04-2.45007E+06
 -1       174-1.79030E+07 5.07321E+05 8.11750E+05-1.40258E+06-3.03017E+05-8.86515E+05
 -1       175-2.54224E+07 1.67612E+05-7.76643E+04-5.79233E+05 3.85086E+05-8.76335E+05
 -1       176-6.06185E+06 3.07865E+05-3.86064E+04-1.55783E+06-2.10502E+05-5.35218E+06
 -1       177-2.46510E+07 1.02363E+05-4.13633E+05 5.35493E+03-3.71220E+05-2.52050E+06
 -1       178-2.69123E+07-5.15497E+04-9.82300E+05 1.15938E+05 2.21580E+05-1.33804E+05
 -1       179-2.37427E+07-7.86065E+04 6.93947E+05 3.38727E+03 2.21087E+05 6.69659E+04
 -1       180-8.65915E+06 1.67339E+05-4.77411E+04-5.44899E+04-1.87089E+04 6.63560E+05
 -1       181-2.08226E+07 8.60964E+04-5.29265E+05-2.30907E+05-3.72561E+05-1.15442E+05
 -1       182-2.02340E+07-7.55360E+04-6.47326E+05-2.02190E+05-8.90682E+04 1.15330E+06
 -1       183-1.94403E+07 9.81365E+04-1.17557E+06 5.66169E+05 2.09296E+05 8.68457E+05
 -1       184-2.47581E+07-1.04015E+05-1.23675E+06-2.69816E+05-1.82521E+05 2.00064E+05
 -1       185-7.92872E+06 1.35154E+05-3.27136E+05 2.92089E+05 1.13333E+03 9.59396E+05
 -1       186-8.21795E+06 5.43868E+04-9.59135E+03 3.08283E+05-1.28002E+05 1.17556E+06
 -1       187-1.45612E+07 1.37326E+05 7.10047E+05-6.36001E+04 2.21861E+04 1.66191E+05
 -1       188-7.47324E+06 9.36381E+04 3.97678E+05 7.65633E+05 4.08740E+05-5.48409E+06
 -1       189-1.46595E+07-5.15567E+04 4.25050E+04-1.00930E+06 3.82871E+05-4.62033E+06
 -1       190-2.46153E+07 2.79121E+05 1.13795E+06-5.17615E+05-5.85548E+05-3.94276E+05
 -1       191-2.31278E+07 3.14805E+05-1.01390E+06-1.60711E+06 4.25076E+05 9.94835E+05
 -1       192-5.83703E+06 3.00338E+05 3.29134E+05 6.17435E+04 1.02545E+05-5.26995E+06
 -1       193-6.54452E+06 2.89515E+05 1.60846E+06-2.33789E+06-4.48580E+05-5.12484E+06
 -1       194-9.04584E+06-1.84675E+04 3.05227E+05-3.94847E+05 9.94952E+04 4.14530E+05
 -1       195-5.43734E+06-2.31490E+04-2.54380E+05-8.23555E+05-9.77161E+04-9.50462E+06
 -1       196 4.03067E+06 7.17569E+04 1.15183E+06-8.64875E+04 4.01869E+04-1.40655E+06
 -1       197 8.71614E+06-1.10069E+05-1.27884E+06-4.63931E+05-4.43726E+05-1.29936E+07
 -1       198 5.35591E+06-3.72468E+04-1.29262E+05-5.43862E+05-1.58541E+05-1.13008E+07
 -1       199 7.50615E+06 5.21029E+04 1.55403E+06-1.71574E+05 2.91179E+05-6.67383E+06
 -1       200 3.02731E+06 1.37347E+05 1.53965E+05-1.47312E+05 4.74036E+04-3.67652E+06
 -1       201 6.89431E+06-4.63085E+03-1.14048E+04-8.37076E+05-5.23100E+04-8.95802E+06
 -1       202 1.42142E+07-6.53239E+04 1.12244E+06-1.08784E+05 1.37822E+05 3.95599E+05
 -1       203 9.24301E+06-1.13015E+05 8.72160E+05 2.65744E+05 7.24671E+04 1.51301E+06
 -1       204 3.12589E+06-5.64984E+04 1.69678E+06 1.22121E+05 1.62768E+05 4.12635E+04
 -1       205 8.86449E+06-1.03612E+05 8.62628E+05-3.19927E+05-1.35792E+05 3.17463E+05
 -1       206 1.35979E+07-6.88467E+04 1.43502E+06-2.70735E+05-6.09159E+04-1.41798E+06
 -1       207 2.19912E+06 1.74034E+04-2.58868E+05-1.61078E+04-1.34182E+05 1.76364E+06
 -1       208 2.42261E+06 8.51031E+04-7.57987E+04-7.45975E+04 3.27354E+03 1.37260E+06
 -1       209-1.16685E+07 7.22428E+04 5.42320E+04-1.85501E+04-9.12348E+04 9.39634E+05
 -1       210-7.05293E+06 6.63397E+04 7.07375E+04 9.33242E+04 2.18895E+05 1.07667E+06
 -1       211-4.73194E+06 1.19008E+04-6.45276E+05-5.05396E+04-3.03280E+05 1.64826E+06
 -1       212-5.87128E+06-6.23338E+04-2.70007E+05-3.96006E+04-1.06154E+05 1.31797E+06
 -1       213-1.46780E+07 6.05374E+03-1.15850E+06-6.85020E+05-8.78356E+03-5.97883E+06
 -1       214-1.17432E+07 1.72249E+05 1.98974E+05-1.19652E+06-3.40299E+05-6.68624E+06
 -1       215 1.25369E+07-2.05588E+05-1.58601E+06-9.05541E+05-3.71625E+05-8.23137E+06
 -1       216 1.46918E+07-6.13795E+04-7.92825E+05-1.53930E+06 2.29922E+05-7.92408E+06
 -1       217-2.42303E+06 1.53213E+04 6.09807E+04 3.84929E+05 1.49633E+05 1.71781E+06
 -1       218-3.07174E+06-4.11117E+04-1.72518E+05 4.20396E+05 1.90468E+04 1.59893E+06
 -1       219-4.05193E+05 1.58346E+04-5.57455E+05 3.14493E+04 5.27392E+03-1.85693E+05
 -1       220 7.14204E+05-5.21417E+04 1.76002E+06-9.51713E+04 8.69185E+04-2.90333E+06
 -1       221 1.95741E+06-2.95222E+04 4.91002E+05-4.11088E+04 1.38814E+04 9.13922E+05
 -1       222-8.67270E+06 1.78126E+04-5.30983E+05-1.74362E+05-2.68912E+05 1.03049E+06
 -1       223-4.94494E+06 8.85182E+04-2.86440E+05 1.33100E+02 2.44505E+05 1.21328E+05
 -1       224-6.99692E+06 9.46148E+04-9.58122E+05 6.50681E+04 5.64303E+05-1.28611E+06
 -1       225-9.22641E+06-1.68251E+04-1.18898E+06-1.70066E+05-3.79942E+04-3.55336E+06
 -1       226-6.65797E+06 2.08109E+04 7.45248E+03-6.36106E+05-4.19684E+04-9.65336E+06
 -1       227-1.56905E+06 7.23566E+04-1.21440E+06-5.25289E+05 8.08411E+03-7.72188E+06
 -1       228-1.38012E+07 1.05848E+05-1.38237E+06-6.31435E+05 1.37488E+05-4.92103E+06
 -1       229 1.14782E+07-1.20046E+05-4.08744E+05-6.95687E+05 2.78130E+05-8.76600E+06
 -1       230 2.46361E+06 2.73131E+04 4.03942E+05-3.16041E+05 2.91960E+05-9.80831E+06
 -1       231-6.13451E+06-1.30156E+05-1.41501E+06-2.51287E+05-2.30887E+05-2.96194E+06
 -1       232-1.76022E+06-4.97147E+04-6.41649E+05 4.17987E+04-2.82427E+05-1.86347E+06
 -1       233-3.87584E+06-9.27385E+04 2.67997E+05-4.40458E+05-9.81388E+04-7.58414E+06
 -1       234 9.44716E+05-4.25086E+04 1.98857E+05-5.98073E+05 6.26403E+04-1.14967E+07
 -1       235 9.92119E+06-5.13877E+04 8.86235E+05-2.43988E+05 3.65095E+04-3.36821E+06
 -1       236 7.26659E+06-6.83963E+04 6.00352E+05-8.20999E+05-4.47571E+05-6.30481E+06
 -1       237-2.56585E+06 5.28525E+03-4.72871E+04-7.74600E+05 1.65632E+04-1.30420E+07
 -1       238-5.74990E+05 2.27114E+04 3.47402E+05-2.61543E+05 1.00348E+05-5.53355E+06
 -1       239 6.65688E+06-9.56242E+03 7.10279E+04-6.79380E+03-1.15090E+05 8.01497E+05
 -1       240 4.43504E+06 5.31720E+04 4.87538E+05 4.98155E+03-1.70770E+05 5.75742E+05
 -1       241 2.92955E+06 4.59383E+04-5.72828E+04-8.41081E+04-3.54237E+05 8.47839E+05
 -1       242 9.82695E+06 8.54636E+04 1.17588E+06 1.70349E+05-7.39663E+04 7.12505E+05
 -1       243 3.62366E+06 2.67057E+04 9.44950E+03 5.97382E+04-1.09699E+04 1.33370E+06
 -1       244 1.78714E+06 3.02367E+04-1.39077E+04 1.22730E+05-5.25681E+04 7.98127E+05
 -1       245 5.43627E+06 8.82352E+04 1.20097E+06 7.07453E+04 3.82585E+04 5.52019E+05
 -1       246 1.14634E+07 6.34555E+04 7.74206E+05-1.22099E+04 4.41848E+04 1.40751E+06
 -1       247 1.39883E+07 1.53108E+05 1.61271E+06-8.93843E+04-8.84429E+03-1.30682E+06
 -1       248-1.36188E+07 1.74679E+05 2.96080E+05-8.17199E+04 2.73368E+05-7.09050E+06
 -1       249-7.70895E+06-5.81782E+04-1.17590E+05-1.99172E+05-1.13760E+04-1.07504E+07
 -1       250-1.13495E+07 1.35386E+05-4.88738E+05-1.44120E+06-3.21019E+05-7.03096E+06
 -1       251-1.42591E+07-1.48910E+05-1.47565E+06-2.64878E+05-2.27067E+04-4.28936E+06
 -1       252-9.16915E+06 1.03522E+05 1.26371E+06-1.03649E+05-4.87548E+03-1.28118E+07
 -1       253-2.80703E+06 2.63767E+03 3.97467E+05-7.17693E+05-8.54142E+03-1.30311E+07
 -1       254-7.70207E+06 1.11685E+05 1.01905E+06-1.19649E+06 1.76623E+05-1.26317E+07
 -1       255-1.19316E+07 3.79694E+05 8.73371E+05-6.96457E+05 2.15308E+05-7.95380E+06
 -1       256-6.83474E+06-9.81701E+04 5.81695E+05-9.96214E+05 2.92890E+05-1.02466E+07
 -1       257 1.97525E+06-1.01355E+05-2.12623E+04-6.56252E+05 6.93511E+04-1.10176E+07
 -1       258-6.52523E+05 1.95676E+05-7.05346E+05-4.93356E+04-1.81931E+05 1.52717E+05
 -1       259-5.94936E+06-8.14092E+03 4.90136E+05-9.26247E+05-3.99167E+04-1.14589E+07
 -1       260 7.24160E+06-8.75653E+04-9.03060E+05-8.75078E+05-1.12179E+05-1.23695E+07
 -1       261 1.00116E+07-7.63725E+04-6.77107E+05-9.38291E+05 1.81437E+05-9.17181E+06
 -1       262 5.94124E+06-9.05518E+04 2.81760E+05 2.69156E+04 7.69374E+04 1.10004E+06
 -1       263-9.45719E+06 6.87549E+04-7.68948E+05 1.46477E+05 7.66088E+03 1.57569E+06
 -1       264-1.11089E+07 2.48919E+05 1.34780E+06-8.44025E+05-3.06643E+05-8.28751E+06
 -1       265 1.36513E+07-1.40724E+05-2.21128E+05 2.36195E+05-4.09490E+05-6.54417E+06
 -1       266-6.47218E+06-4.14763E+04 6.75062E+05-5.18115E+05-1.88063E+05-1.31295E+07
 -1       267-1.12456E+07-1.07083E+05-9.45644E+05-1.27437E+05-1.91404E+05 1.13630E+06
 -1       268 1.13880E+07-1.59956E+04-2.82470E+05-5.84188E+05 2.92318E+05-8.04666E+06
 -1       269-2.47124E+06 1.57308E+04-3.52595E+04-1.77221E+05 7.58790E+04 1.27405E+06
 -1       270 4.99450E+06-6.05708E+04 5.64831E+05 1.58212E+05 2.65404E+04 1.91460E+06
 -1       271 7.85890E+06 1.27382E+05-5.80016E+05-4.15823E+05 2.38039E+05-1.11152E+07
 -1       272 6.08646E+06-4.41242E+04-1.24300E+05-5.21227E+05-1.60676E+05-8.75644E+06
 -1       273 1.57786E+07-1.82272E+04 1.82580E+06-3.87104E+05 3.21498E+05-5.54670E+06
 -1       274-6.71362E+06 1.19849E+05-6.10944E+05 6.71022E+04 7.55513E+04-1.35253E+06
 -1       275-2.18119E+06 3.26567E+04 7.16117E+04 7.74344E+04 9.20711E+04 1.26772E+06
 -1       276-3.94079E+06-6.57413E+04 9.37477E+05-6.79607E+05-5.21552E+04-1.31025E+07
 -1       277-1.45919E+07-6.23451E+04-1.12071E+06-1.39363E+05-1.04791E+05 7.28700E+05
 -1       278 7.64108E+06-3.57289E+04 3.77361E+05-2.66959E+05-3.42546E+04-6.40899E+06
 -1       279-1.45324E+07 9.42402E+04 1.58702E+05-1.43960E+05 9.93328E+04-8.19872E+06
 -1       280 5.11537E+06 1.60479E+04-1.05080E+06-1.16414E+06-2.74896E+04-1.33015E+07
 -3
    1PSTEP                        15           1           1          
    1PGM                1.000000E+00                                  
    1PGK                9.244600E+11                                  
    1PHID                         -1                                  
    1PSUBC                         0                                  
    1PMODE                         5                                  
  100CL  105 1.53026E+05         280                     2    5MODAL      1
 -4  TOSTRAIN    6    1
 -5  EXX         1    4    1    1
 -5  EYY         1    4    2    2
 -5  EZZ         1    4    3    3
 -5  EXY         1    4    1    2
 -5  EYZ         1    4    2    3
 -5  EZX         1    4    3    1
 -1         1-1.03116E+01 3.80636E-01 4.38052E+00-1.11036E+01 4.12975E+00-5.19509E+01
 -1         2 9.19659E+00 2.22344E-01-4.45011E+00 3.70786E+00 3.90655E+00-5.02358E+01
 -1         3-1.06621E+01 6.14839E-01 3.96925E+00 4.16636E+00-3.69500E+00-4.89020E+01
 -1         4 1.11785E+01-6.72780E-01-3.64279E+00-1.16017E+01-4.82314E+00-4.90214E+01
 -1         5 1.10857E+01-8.29843E-01-2.98214E+00 2.68880E-01 7.04303E-01 3.33205E+00
 -1         6-8.26679E+00 8.66467E-01 2.69443E+00 1.10868E+00 1.14698E-01 2.94832E+00
 -1         7 8.10426E+00-1.06356E+00-2.23724E+00 1.49699E+00 8.65160E-02 3.20117E+00
 -1         8-1.00950E+01 1.11229E+00 2.14229E+00-6.68009E-01-3.92964E-02 3.38175E+00
 -1         9-2.30306E+00 4.06065E-02 2.80702E-01-4.86374E+00-2.49271E-01-7.71637E+01
 -1        10 2.34857E+01 6.11442E-06 2.50339E-05-4.23147E+00 8.25329E-06-7.08703E+01
 -1        11-2.95553E+01 3.55676E-06-2.29741E-05-4.76915E+00 4.66669E-06-7.04044E+01
 -1        12-1.92327E+01-7.85133E-02-2.44307E+00-3.33851E+00 3.85794E-03-6.09242E+01
 -1        13-5.33519E+01 8.89508E-06 3.09619E-05-3.31951E+00 7.89995E-06-6.15075E+01
 -1        14-4.68709E+01 9.30756E-06 2.04085E-05-6.87941E+00-1.12049E-05-6.02914E+01
 -1        15 1.81873E+00 9.02631E-02-1.08077E-01-4.68317E+00-9.84755E-01-7.67964E+01
 -1        16 2.77938E+01 2.28492E-07 2.55362E-05-5.26696E+00 5.67950E-06-6.97069E+01
 -1        17-2.21200E+01-1.36836E-06-2.88186E-05-3.93538E+00 2.86690E-07-6.92867E+01
 -1        18-4.62176E+00-1.19172E+00 3.46578E+00-5.38665E+00 1.24458E+00-5.44723E+01
 -1        19 5.85835E+01-1.12252E-05-2.94403E-05-5.78312E+00 6.63279E-06-6.18459E+01
 -1        20 4.77578E+01-1.35385E-05-1.16715E-05-4.51925E+00-8.13570E-06-5.97993E+01
 -1        21-6.23614E-01-4.70165E-01-8.88923E-01 5.98272E-01 1.66302E-01 9.93318E+00
 -1        22 1.97213E+00-8.67315E-02-2.20201E+00 6.47981E-01 8.40172E-01 5.79354E+00
 -1        23-2.76439E+00-5.98599E-01 1.22969E+00 1.03267E+00-1.02610E+00 5.94165E+00
 -1        24 1.65082E+01 6.34936E-01-2.50344E+00 5.03125E-01-2.85546E-01 4.83369E+00
 -1        25 5.00554E+00-4.88738E-02-2.93989E+00 1.25555E+00 3.89089E-01 2.35361E+00
 -1        26 3.44315E+00-6.49172E-01-4.64263E+00-6.37341E-02-7.12598E-02 2.37924E+00
 -1        27-9.48088E-01 1.53380E-01-2.56361E-01 2.56407E-01-9.48561E-01 7.48436E+00
 -1        28 3.09210E+00 2.57221E-01-3.31008E+00 1.78095E-01 1.41770E-01 5.70396E+00
 -1        29-3.39066E+00-2.51994E-02 2.74145E+00 8.70986E-02 2.71151E-01 5.49024E+00
 -1        30-1.24132E+01-2.81088E-01 1.83349E+00 3.56295E-01-2.40946E-01 4.65844E+00
 -1        31-3.34665E+00 3.95208E-01 2.16687E+00 1.69036E+00-1.61376E+00 2.30770E+00
 -1        32-5.42434E+00 3.05281E-01 1.72031E+00-8.26004E-01 1.24409E+00 2.81345E+00
 -1        33 1.39991E+02 5.32516E-01 4.42579E+00 4.27196E-02-8.62046E-01-1.25399E+00
 -1        34 7.77168E+01-2.47742E+00 3.31541E+00-2.63530E+00 2.47981E+00-1.48069E+01
 -1        35 8.09672E+01-3.38400E-01 7.23021E-02-1.85679E+00-4.01725E-01 1.67720E+00
 -1        36-1.27160E+02 3.02004E-01-1.02988E+00-8.06770E-01-8.61244E-01 2.21316E+00
 -1        37-6.69835E+01 3.33663E+00-3.52376E+00 1.37079E-01 2.41525E+00-1.51076E+01
 -1        38-6.98516E+01 9.88804E-01-1.41262E+00 2.61088E+00-6.38159E-01 3.59729E+00
 -1        39 1.26426E+02-4.73657E-01 6.01551E-01 7.63181E-02 7.18871E-01 6.18529E-01
 -1        40 6.37905E+01-2.78711E+00 5.22104E+00-1.05089E+00-7.84705E-01-1.33576E+01
 -1        41 7.23971E+01-1.16194E+00-5.05566E-01 1.58729E+00-1.08949E+00 4.54877E+00
 -1        42-1.39423E+02-2.78978E-01-4.90853E+00 3.37934E-01 1.04244E+00 1.39962E+00
 -1        43-7.50928E+01 1.94359E+00-4.08076E+00-1.02855E+00-1.52843E+00-1.17702E+01
 -1        44-8.19959E+01 9.39956E-01 1.25987E+00-5.49125E-01 1.64063E-01 4.01056E+00
 -1        45 4.22442E+00 3.68685E-02-6.38369E-01-4.84392E+00 1.31324E+00-7.89749E+01
 -1        46-2.56935E+01-2.03728E-01 3.37376E+00-3.52193E+00-1.48017E+00-7.52234E+01
 -1        47 3.76472E+01-1.31096E-02-8.26267E+00-7.44160E+00-2.13121E+00-7.68273E+01
 -1        48-4.06682E+01 5.68710E-01 5.13747E+00-4.41347E+00 9.62599E-01-7.11495E+01
 -1        49 3.08583E+01-3.96655E-01-1.16541E+00-5.49309E+00-7.81047E-01-6.66295E+01
 -1        50-1.70078E+01-3.09383E-01 1.68331E+00-1.97573E+00 6.86989E-01-6.23337E+01
 -1        51-1.81960E+01 2.86200E-06-2.00222E-05-4.73496E+00 3.53812E-06-7.29956E+01
 -1        52-9.09877E-01 2.82781E-06 2.76705E+00-4.78326E+00 1.68130E-01-7.75903E+01
 -1        53-1.47649E+01-6.76854E-02-1.52059E+00-5.50156E+00-7.94125E-01-7.52119E+01
 -1        54 2.12226E+01 7.62078E-02-2.75497E+00-4.59094E+00-1.33938E+00-7.66436E+01
 -1        55 2.00161E+01 2.69790E-01-1.90884E+00-7.38198E+00 8.19559E-01-6.35793E+01
 -1        56 2.09834E+01-1.28378E-01-1.70297E+00-6.47868E+00 9.15673E-01-7.89575E+01
 -1        57 7.59616E+00-3.22527E-03-5.32806E+00-3.00081E+00-2.66567E+00-6.76774E+01
 -1        58 4.47782E+00 4.58515E-02 3.53695E-05-5.80908E+00 2.72980E+00-7.00286E+01
 -1        59 2.25001E+00 4.37737E-07 1.84970E-05-4.60743E+00-5.81423E-06-6.27793E+01
 -1        60 1.25913E+01 3.34119E-01-1.58278E+00-1.52661E+00-6.24354E-01-5.96254E+01
 -1        61 2.63481E+01-1.45536E-02-1.34797E+00-6.88546E+00-6.81273E-01-6.96908E+01
 -1        62-1.26759E+01-5.99607E-01 4.05489E+00-1.03767E+01-1.72766E+00-6.65803E+01
 -1        63-3.15235E+01 7.25058E-07-2.94784E-05-5.64414E+00-3.91746E-06-7.43885E+01
 -1        64-1.81369E+01 4.44980E-01 9.79201E-01-4.66726E+00 7.12108E-01-7.28605E+01
 -1        65-1.96104E+01-1.54777E-01 2.30353E+00-6.75959E+00-1.07440E+00-5.98914E+01
 -1        66-1.94490E+01-1.16434E-06-2.99203E-05-5.38826E+00-4.84330E-06-7.54700E+01
 -1        67 1.12594E+00 2.21989E-07-1.68956E+00-5.18424E+00-7.52129E-02-7.60194E+01
 -1        68-2.89146E+01-9.46283E-02 3.87235E+00-1.49313E+00 1.88887E+00-6.30764E+01
 -1        69 1.52068E+01 4.99015E-07 2.85522E-05-5.18726E+00 4.03624E-06-7.09427E+01
 -1        70 5.42928E+00-1.51524E-01-6.89629E-01 1.13793E+00-1.04900E+00 1.09433E+01
 -1        71 3.23937E+00-7.20951E-01 2.12789E-01-1.51789E+00-3.49369E-02 4.54544E+00
 -1        72 4.88269E+00 2.39810E-01 5.82371E-01 2.47638E+00 9.56223E-01 9.72069E+00
 -1        73-3.17085E+00 1.16766E-01-2.12395E+00-3.58172E-01-4.95669E-01 5.32195E+00
 -1        74-3.90397E-01-1.03374E-01-4.52649E+00-1.77061E-01-1.01760E+00 6.79714E+00
 -1        75-2.03369E+00-3.03826E-01 7.90552E-01 9.08702E-01 2.08528E+00 8.14035E+00
 -1        76-2.13438E+00 6.12465E-01 2.99174E+00 1.05356E+00 5.12599E-01 4.89687E+00
 -1        77 3.28805E+00-3.50296E-02-1.47061E+00 9.85096E-01-2.22608E+00 6.69470E+00
 -1        78 8.17805E+00 2.10674E-02-4.37545E+00 1.04518E+00-2.51583E+00 8.07718E+00
 -1        79 1.35216E+01 7.45009E-02-5.01963E+00 1.38423E+00-6.25942E-01 9.84586E+00
 -1        80 1.24034E+00 1.76257E-01 5.30506E-01-2.30758E-02-2.37370E+00 8.59699E+00
 -1        81 6.86701E-01 1.82442E-01-4.31780E+00-1.16685E+00-2.58422E+00 4.71300E+00
 -1        82 2.45598E+00-3.23700E-01-5.62995E+00 5.24706E-01 1.43869E+00 3.80964E+00
 -1        83-3.98157E+00 3.60089E-01 1.89765E+00-6.71503E-01-7.18202E-01 5.75675E+00
 -1        84-7.06076E+00 2.73117E-01 2.96980E+00 5.83928E-01-2.87857E+00 5.08237E+00
 -1        85 4.34975E+00 1.54676E-01-3.73699E-01 3.37778E+00 1.03374E+00 1.06876E+01
 -1        86 7.03931E+00 5.27529E-01-5.51520E+00 6.34791E-01 7.69681E-01 4.94942E+00
 -1        87 2.87462E+00-4.29741E-01-5.43334E+00 4.23819E-01-9.26829E-01 4.37278E+00
 -1        88-2.40637E+00-2.44229E-01-1.57977E-01 2.16739E-01-1.21499E+00 8.68055E+00
 -1        89-1.10925E-01-3.69472E-01 1.94774E+00 1.21794E+00 2.13365E+00 1.38546E+01
 -1        90-4.00409E-01-5.60624E-01 3.02027E+00 1.94613E+00 6.72770E-01 8.75726E+00
 -1        91-8.21520E-01-3.75825E-01-2.36098E-01-6.21875E-01-3.35253E-01 3.86329E+00
 -1        92-2.05387E+00 9.60194E-04 4.70725E+00-3.05589E-01-1.49835E+00 3.50583E+00
 -1        93 6.40997E+00-6.55245E-01-3.73356E+00 3.63983E-01 1.56169E+00 2.29646E+00
 -1        94 4.83772E+00-6.95469E-01-3.42873E+00-3.92306E-01-7.04201E-01 6.34511E+00
 -1        95 1.04232E+01 3.64322E-01-1.37716E+00-8.94554E-02 5.54654E-01-2.95293E+01
 -1        96-2.39234E+01 8.15362E-01-3.65729E+00 2.93954E-01 1.41096E-01 5.81553E+00
 -1        97 3.59217E+01 2.40774E-01 4.93743E+00 5.49187E-02 8.41828E-01 6.89206E+00
 -1        98 4.76499E+01-2.76288E-01 2.47220E+00 1.23398E+00 2.09858E-02-5.42034E+01
 -1        99-3.56291E+01-2.08143E-01 1.02938E+00-2.28513E+00-1.34720E-01-5.46188E+01
 -1       100 2.92944E+01-2.29156E-01 4.02019E-01-4.39424E+00 1.01840E+00-5.19417E+01
 -1       101 2.72444E+01-7.38955E-01-3.27347E+00-2.11582E+00-6.69197E-01-6.48525E+01
 -1       102 5.04137E+00-2.67793E-01-2.15165E-01-3.14681E+00-3.27300E-01-5.90295E+01
 -1       103 2.94223E+01 1.66108E-01 4.04227E+00-5.76510E-01 2.09384E+00-4.37643E+01
 -1       104-1.33427E+01 6.25857E-02-3.05144E+00-4.41094E-01 1.21652E+00-4.34319E+01
 -1       105-2.24989E+01-4.80392E-01 3.70295E+00-3.02183E+00-4.95045E-01-6.54143E+01
 -1       106-2.39379E+01-5.00401E-01-6.60502E-01 2.05525E-01 1.50959E+00-5.12729E+01
 -1       107-6.40485E+00 5.34789E-01-5.28479E+00 1.28799E+00-1.77018E+00-7.23301E+00
 -1       108-6.94887E+01-5.73785E-01-2.32221E+00 1.55097E+00-1.03604E+00 1.67020E+00
 -1       109-4.72382E+01 1.32443E-01-4.86882E+00 3.43818E-01 2.00261E+00-1.49161E+01
 -1       110 5.40027E+00-3.31768E-01-5.16720E-01 3.01028E-01 1.02028E+00 7.96139E-02
 -1       111-8.91396E+00 3.61336E-01-1.60386E+00-6.22753E-01 3.23569E-01 7.32135E+00
 -1       112-1.75409E+01 4.57624E-01-1.15380E+00 7.03500E-01 1.59208E+00 4.49072E+00
 -1       113 2.30080E+01-4.05542E-02 5.23776E+00 1.24962E-01-7.33937E-01-7.04623E+00
 -1       114 1.38905E+01-3.16292E-01 6.28078E-01 9.88347E-01 7.46801E-01 8.02234E+00
 -1       115 6.39206E+01 2.43701E-01 6.20468E+00-6.55907E-01-2.74560E-01-1.61401E+01
 -1       116 8.46444E+01 3.69948E-01 5.18405E+00-3.66347E-01-7.74766E-01 1.44611E+00
 -1       117 2.54973E+01-2.36513E-02 4.43107E-01-6.50277E-02 1.39681E+00 5.41105E+00
 -1       118 9.38969E+01 3.39248E-01 5.16374E+00 1.39043E+00 3.76278E-01-2.67201E+01
 -1       119-8.04631E+01 6.06735E-01-1.42872E+00-3.49603E+00-1.43780E-01-2.52608E+01
 -1       120-1.17890E+01-3.18705E-01 2.58910E+00-8.77084E-01-7.83408E-02-2.68975E+01
 -1       121 1.97896E+01 6.09848E-02 5.52956E+00 1.06486E+00 7.78603E-02 6.48705E+00
 -1       122 4.05032E+01-1.57088E-01-3.81947E+00-2.57886E+00-1.84585E-01-5.32347E+01
 -1       123-3.35165E+01-8.07167E-01-6.07033E+00 2.98672E-01-2.82376E-01 6.17165E+00
 -1       124-5.16275E+01-4.15106E-02 3.03917E+00 1.11997E+00-1.54208E-01-5.53292E+01
 -1       125-8.39993E+01-1.05348E+00-7.04299E+00-7.94450E-01-1.16572E+00 2.77069E+00
 -1       126-2.08756E+01-5.82838E-01-6.74281E+00-8.77186E-01 3.03118E-01-7.13927E+00
 -1       127-6.37907E+01-2.80991E-01-6.23323E+00 2.85023E-01-5.96752E-01-1.61640E+01
 -1       128-2.34063E+01-1.53432E-01-2.30625E+00-7.46304E-01-8.12273E-01 5.02951E+00
 -1       129-9.52320E+01 5.22762E-01-2.43247E+00 1.57281E+00 2.04407E+00-2.54914E+01
 -1       130-3.31723E+01 7.41098E-02-1.18538E+00-1.12889E+00-2.46235E-01-4.32925E+01
 -1       131-2.91498E+01-4.86306E-01 1.26214E+00-5.54512E+00-2.52197E+00-5.11552E+01
 -1       132 7.01096E+01 1.07744E-01 3.84508E+00 1.66073E+00-6.81919E-01 2.72803E+00
 -1       133 4.85146E+01 6.78809E-02 4.99715E+00 1.61260E+00-1.78780E+00-1.67653E+01
 -1       134 3.69198E+00-2.38908E-01 7.40434E+00 4.03740E-01 2.80992E-01-8.11955E+00
 -1       135 1.66829E+01-1.25331E-01 2.42548E+00 1.35243E+00-1.49057E+00 4.99904E+00
 -1       136 7.23177E+00 3.16988E-01 1.18880E+00-9.71986E-01-3.19461E-01 6.64968E+00
 -1       137-5.29587E+00-8.79090E-02 7.73441E-01 7.41255E-02 2.20531E+00-2.21852E-01
 -1       138 2.32790E+01-1.82688E-01-4.90946E+00-3.68837E+00-1.43009E+00-6.50042E+01
 -1       139-5.45863E+00-4.28179E-03 5.97021E-01-2.55973E+00-1.47590E+00-5.93541E+01
 -1       140 1.51153E+01-1.84882E-01 1.92343E+00-2.73688E+00 4.47998E-01-4.43182E+01
 -1       141 2.33566E+01 5.33378E-01-2.04345E-01 2.67589E+00-2.45770E+00-5.00198E+01
 -1       142 8.08440E+01-4.70139E-01-1.25927E+00-2.48785E+00 2.35808E+00-2.35901E+01
 -1       143-1.32448E+01-3.11240E-01-2.52455E+00 1.86543E+00 1.83718E-01 5.83182E+00
 -1       144-2.58016E+01 3.78396E-01 5.04339E+00-2.20979E+00-5.88262E-01-6.54070E+01
 -1       145 1.22492E+02-8.56270E-01 4.12238E+00-3.87543E+00 6.62652E-01-1.99357E+00
 -1       146 7.93795E+01-3.03685E-01-1.41641E+00-3.43562E+00 1.19157E+00-2.72573E+01
 -1       147 7.23234E+01-9.63112E-01 3.09736E+00-3.85235E-02 4.93686E-01 6.24335E+00
 -1       148 7.93156E+01 4.53068E-01 3.27591E+00 1.48869E-01-3.08286E-01 4.88382E+00
 -1       149 9.48080E+01-1.76021E+00-4.63154E+00-5.54751E-01-1.89550E+00-3.59621E+00
 -1       150 3.64797E+01-1.62745E+00-6.77453E+00 3.03803E+00-2.00424E+00-2.44350E+01
 -1       151 3.26965E+01-8.91304E-01-1.94010E+00-7.46459E+00 4.00604E-01-2.69035E+01
 -1       152 6.92824E+01-1.28364E+00-6.39697E+00-3.71213E+00 1.15775E+00-2.77562E+01
 -1       153 2.89247E+01-3.92609E-01-3.26174E+00-6.46543E+00 1.20606E+00-4.46070E+01
 -1       154 1.04021E+02-1.07469E+00 1.65607E+00-5.08601E+00-1.71888E+00-1.77345E+01
 -1       155 1.14202E+02-1.20472E+00 4.07243E+00-4.63453E-01 3.11806E+00 5.65165E+00
 -1       156 3.08290E+01-8.30790E-01-3.83552E-01-2.53324E+00 1.54319E-01-3.01297E+01
 -1       157 1.36144E+02-7.70019E-01-6.46714E+00-1.12395E+00-3.43004E+00-7.80412E-01
 -1       158 1.07723E+02-4.08866E-01 9.57801E-01-2.65090E+00 1.89405E+00-1.15613E+01
 -1       159 1.24498E+02-1.74819E-01 4.26051E+00-1.54209E+00-2.19937E-01-2.96432E+00
 -1       160 1.09891E+02-4.66499E-01-3.25125E+00 6.35565E-03 1.24522E+00 1.75676E+00
 -1       161 1.13984E+02-8.92264E-01-7.82803E-01-1.32889E+00-9.73207E-01 3.70579E+00
 -1       162 3.89009E+01-1.23721E+00 2.68116E+00 1.00078E+00 3.41101E-01 3.77167E+00
 -1       163 4.32825E+01-2.28770E-01 1.32051E+00-6.40740E-01 6.65027E-02 5.21858E+00
 -1       164 8.03497E+01-4.68582E-01 3.02252E+00-1.75856E+00-1.53607E-01 7.05507E+00
 -1       165 4.52208E+01 8.12656E-01 1.14731E+00 7.47170E-02-6.11208E-01 3.49044E+00
 -1       166 1.14602E+02 5.80220E-02 9.62839E-01-2.65272E+00 8.87091E-01 4.18508E+00
 -1       167 1.14698E+02 8.02770E-01 1.43049E+00 5.40170E-01-8.26291E-01 1.52594E+00
 -1       168 1.34063E+02 6.73267E-01 5.07778E+00-3.41188E+00 2.01402E-01-2.24961E-01
 -1       169 4.30690E+01-5.36127E-01 1.95842E+00 6.89574E-01 1.81339E-02 3.74039E+00
 -1       170-1.19148E+02 5.13133E-01-6.57047E+00-1.32275E+00 4.30498E-01-2.21948E+00
 -1       171-8.04974E+01 1.38499E-01-5.51944E-01-1.33498E+00-4.14209E-01 1.92556E+00
 -1       172-7.26031E+01 2.74613E-01-3.61016E+00 1.24692E+00 4.98665E-02 9.28439E+00
 -1       173-8.63680E+01 2.00265E+00 2.79325E-01-3.50666E+00 2.98706E-01-1.22503E+01
 -1       174-8.95152E+01 2.53660E+00 4.05875E+00-7.01292E+00-1.51509E+00-4.43258E+00
 -1       175-1.27112E+02 8.38062E-01-3.88321E-01-2.89616E+00 1.92543E+00-4.38167E+00
 -1       176-3.03092E+01 1.53933E+00-1.93032E-01-7.78913E+00-1.05251E+00-2.67609E+01
 -1       177-1.23255E+02 5.11813E-01-2.06816E+00 2.67747E-02-1.85610E+00-1.26025E+01
 -1       178-1.34561E+02-2.57748E-01-4.91150E+00 5.79688E-01 1.10790E+00-6.69019E-01
 -1       179-1.18714E+02-3.93032E-01 3.46974E+00 1.69363E-02 1.10544E+00 3.34829E-01
 -1       180-4.32958E+01 8.36696E-01-2.38706E-01-2.72450E-01-9.35443E-02 3.31780E+00
 -1       181-1.04113E+02 4.30482E-01-2.64632E+00-1.15454E+00-1.86281E+00-5.77209E-01
 -1       182-1.01170E+02-3.77680E-01-3.23663E+00-1.01095E+00-4.45341E-01 5.76649E+00
 -1       183-9.72017E+01 4.90682E-01-5.87784E+00 2.83085E+00 1.04648E+00 4.34229E+00
 -1       184-1.23790E+02-5.20075E-01-6.18375E+00-1.34908E+00-9.12606E-01 1.00032E+00
 -1       185-3.96436E+01 6.75770E-01-1.63568E+00 1.46044E+00 5.66663E-03 4.79698E+00
 -1       186-4.10897E+01 2.71934E-01-4.79568E-02 1.54141E+00-6.40010E-01 5.87781E+00
 -1       187-7.28062E+01 6.86629E-01 3.55024E+00-3.18000E-01 1.10931E-01 8.30957E-01
 -1       188-3.73662E+01 4.68190E-01 1.98839E+00 3.82816E+00 2.04370E+00-2.74205E+01
 -1       189-7.32976E+01-2.57784E-01 2.12525E-01-5.04649E+00 1.91436E+00-2.31016E+01
 -1       190-1.23076E+02 1.39561E+00 5.68976E+00-2.58807E+00-2.92774E+00-1.97138E+00
 -1       191-1.15639E+02 1.57403E+00-5.06949E+00-8.03555E+00 2.12538E+00 4.97418E+00
 -1       192-2.91852E+01 1.50169E+00 1.64567E+00 3.08718E-01 5.12724E-01-2.63497E+01
 -1       193-3.27226E+01 1.44757E+00 8.04228E+00-1.16895E+01-2.24290E+00-2.56242E+01
 -1       194-4.52292E+01-9.23375E-02 1.52613E+00-1.97423E+00 4.97476E-01 2.07265E+00
 -1       195-2.71867E+01-1.15745E-01-1.27190E+00-4.11777E+00-4.88580E-01-4.75231E+01
 -1       196 2.01533E+01 3.58785E-01 5.75917E+00-4.32437E-01 2.00934E-01-7.03275E+00
 -1       197 4.35807E+01-5.50343E-01-6.39422E+00-2.31966E+00-2.21863E+00-6.49678E+01
 -1       198 2.67795E+01-1.86234E-01-6.46309E-01-2.71931E+00-7.92704E-01-5.65038E+01
 -1       199 3.75308E+01 2.60514E-01 7.77015E+00-8.57872E-01 1.45589E+00-3.33692E+01
 -1       200 1.51366E+01 6.86733E-01 7.69824E-01-7.36561E-01 2.37018E-01-1.83826E+01
 -1       201 3.44715E+01-2.31542E-02-5.70241E-02-4.18538E+00-2.61550E-01-4.47901E+01
 -1       202 7.10710E+01-3.26619E-01 5.61220E+00-5.43921E-01 6.89109E-01 1.97799E+00
 -1       203 4.62151E+01-5.65076E-01 4.36080E+00 1.32872E+00 3.62336E-01 7.56505E+00
 -1       204 1.56294E+01-2.82492E-01 8.48388E+00 6.10606E-01 8.13842E-01 2.06317E-01
 -1       205 4.43224E+01-5.18059E-01 4.31314E+00-1.59963E+00-6.78961E-01 1.58732E+00
 -1       206 6.79894E+01-3.44234E-01 7.17508E+00-1.35367E+00-3.04580E-01-7.08989E+00
 -1       207 1.09956E+01 8.70171E-02-1.29434E+00-8.05392E-02-6.70912E-01 8.81820E+00
 -1       208 1.21131E+01 4.25515E-01-3.78994E-01-3.72987E-01 1.63677E-02 6.86302E+00
 -1       209-5.83425E+01 3.61214E-01 2.71160E-01-9.27506E-02-4.56174E-01 4.69817E+00
 -1       210-3.52647E+01 3.31698E-01 3.53688E-01 4.66621E-01 1.09447E+00 5.38334E+00
 -1       211-2.36597E+01 5.95039E-02-3.22638E+00-2.52698E-01-1.51640E+00 8.24130E+00
 -1       212-2.93564E+01-3.11669E-01-1.35004E+00-1.98003E-01-5.30770E-01 6.58987E+00
 -1       213-7.33902E+01 3.02687E-02-5.79249E+00-3.42510E+00-4.39178E-02-2.98941E+01
 -1       214-5.87162E+01 8.61246E-01 9.94869E-01-5.98260E+00-1.70150E+00-3.34312E+01
 -1       215 6.26847E+01-1.02794E+00-7.93006E+00-4.52770E+00-1.85812E+00-4.11569E+01
 -1       216 7.34590E+01-3.06898E-01-3.96413E+00-7.69649E+00 1.14961E+00-3.96204E+01
 -1       217-1.21152E+01 7.66063E-02 3.04903E-01 1.92464E+00 7.48165E-01 8.58906E+00
 -1       218-1.53587E+01-2.05558E-01-8.62592E-01 2.10198E+00 9.52341E-02 7.99464E+00
 -1       219-2.02597E+00 7.91732E-02-2.78727E+00 1.57246E-01 2.63696E-02-9.28467E-01
 -1       220 3.57102E+00-2.60709E-01 8.80008E+00-4.75856E-01 4.34592E-01-1.45166E+01
 -1       221 9.78703E+00-1.47611E-01 2.45501E+00-2.05544E-01 6.94068E-02 4.56961E+00
 -1       222-4.33635E+01 8.90632E-02-2.65492E+00-8.71811E-01-1.34456E+00 5.15247E+00
 -1       223-2.47247E+01 4.42591E-01-1.43220E+00 6.65498E-04 1.22252E+00 6.06641E-01
 -1       224-3.49846E+01 4.73074E-01-4.79061E+00 3.25341E-01 2.82152E+00-6.43056E+00
 -1       225-4.61320E+01-8.41254E-02-5.94492E+00-8.50331E-01-1.89971E-01-1.77668E+01
 -1       226-3.32899E+01 1.04054E-01 3.72624E-02-3.18053E+00-2.09842E-01-4.82668E+01
 -1       227-7.84523E+00 3.61783E-01-6.07201E+00-2.62645E+00 4.04206E-02-3.86094E+01
 -1       228-6.90058E+01 5.29241E-01-6.91186E+00-3.15717E+00 6.87438E-01-2.46051E+01
 -1       229 5.73910E+01-6.00230E-01-2.04372E+00-3.47844E+00 1.39065E+00-4.38300E+01
 -1       230 1.23181E+01 1.36566E-01 2.01971E+00-1.58020E+00 1.45980E+00-4.90416E+01
 -1       231-3.06725E+01-6.50781E-01-7.07505E+00-1.25644E+00-1.15443E+00-1.48097E+01
 -1       232-8.80111E+00-2.48573E-01-3.20825E+00 2.08993E-01-1.41214E+00-9.31736E+00
 -1       233-1.93792E+01-4.63693E-01 1.33999E+00-2.20229E+00-4.90694E-01-3.79207E+01
 -1       234 4.72358E+00-2.12543E-01 9.94287E-01-2.99037E+00 3.13201E-01-5.74835E+01
 -1       235 4.96059E+01-2.56938E-01 4.43117E+00-1.21994E+00 1.82547E-01-1.68411E+01
 -1       236 3.63330E+01-3.41982E-01 3.00176E+00-4.10500E+00-2.23785E+00-3.15241E+01
 -1       237-1.28292E+01 2.64262E-02-2.36435E-01-3.87300E+00 8.28161E-02-6.52098E+01
 -1       238-2.87495E+00 1.13557E-01 1.73701E+00-1.30772E+00 5.01742E-01-2.76678E+01
 -1       239 3.32844E+01-4.78121E-02 3.55140E-01-3.39690E-02-5.75448E-01 4.00748E+00
 -1       240 2.21752E+01 2.65860E-01 2.43769E+00 2.49078E-02-8.53848E-01 2.87871E+00
 -1       241 1.46478E+01 2.29692E-01-2.86414E-01-4.20540E-01-1.77118E+00 4.23920E+00
 -1       242 4.91347E+01 4.27318E-01 5.87939E+00 8.51745E-01-3.69832E-01 3.56252E+00
 -1       243 1.81183E+01 1.33528E-01 4.72475E-02 2.98691E-01-5.48494E-02 6.66851E+00
 -1       244 8.93571E+00 1.51184E-01-6.95384E-02 6.13649E-01-2.62840E-01 3.99064E+00
 -1       245 2.71814E+01 4.41176E-01 6.00484E+00 3.53727E-01 1.91292E-01 2.76009E+00
 -1       246 5.73171E+01 3.17278E-01 3.87103E+00-6.10497E-02 2.20924E-01 7.03753E+00
 -1       247 6.99417E+01 7.65538E-01 8.06356E+00-4.46922E-01-4.42214E-02-6.53408E+00
 -1       248-6.80942E+01 8.73394E-01 1.48040E+00-4.08600E-01 1.36684E+00-3.54525E+01
 -1       249-3.85447E+01-2.90891E-01-5.87950E-01-9.95859E-01-5.68801E-02-5.37519E+01
 -1       250-5.67475E+01 6.76931E-01-2.44369E+00-7.20600E+00-1.60509E+00-3.51548E+01
 -1       251-7.12955E+01-7.44550E-01-7.37824E+00-1.32439E+00-1.13534E-01-2.14468E+01
 -1       252-4.58458E+01 5.17608E-01 6.31856E+00-5.18245E-01-2.43774E-02-6.40591E+01
 -1       253-1.40351E+01 1.31883E-02 1.98733E+00-3.58847E+00-4.27071E-02-6.51555E+01
 -1       254-3.85103E+01 5.58423E-01 5.09527E+00-5.98246E+00 8.83113E-01-6.31585E+01
 -1       255-5.96581E+01 1.89847E+00 4.36685E+00-3.48229E+00 1.07654E+00-3.97690E+01
 -1       256-3.41737E+01-4.90850E-01 2.90847E+00-4.98107E+00 1.46445E+00-5.12328E+01
 -1       257 9.87626E+00-5.06775E-01-1.06312E-01-3.28126E+00 3.46756E-01-5.50881E+01
 -1       258-3.26262E+00 9.78378E-01-3.52673E+00-2.46678E-01-9.09655E-01 7.63585E-01
 -1       259-2.97468E+01-4.07046E-02 2.45068E+00-4.63124E+00-1.99584E-01-5.72944E+01
 -1       260 3.62080E+01-4.37827E-01-4.51530E+00-4.37539E+00-5.60893E-01-6.18473E+01
 -1       261 5.00581E+01-3.81862E-01-3.38553E+00-4.69145E+00 9.07183E-01-4.58590E+01
 -1       262 2.97062E+01-4.52759E-01 1.40880E+00 1.34578E-01 3.84687E-01 5.50021E+00
 -1       263-4.72859E+01 3.43775E-01-3.84474E+00 7.32383E-01 3.83044E-02 7.87845E+00
 -1       264-5.55446E+01 1.24459E+00 6.73899E+00-4.22013E+00-1.53321E+00-4.14375E+01
 -1       265 6.82563E+01-7.03618E-01-1.10564E+00 1.18097E+00-2.04745E+00-3.27209E+01
 -1       266-3.23609E+01-2.07381E-01 3.37531E+00-2.59057E+00-9.40313E-01-6.56474E+01
 -1       267-5.62281E+01-5.35413E-01-4.72822E+00-6.37184E-01-9.57022E-01 5.68152E+00
 -1       268 5.69402E+01-7.99778E-02-1.41235E+00-2.92094E+00 1.46159E+00-4.02333E+01
 -1       269-1.23562E+01 7.86538E-02-1.76297E-01-8.86106E-01 3.79395E-01 6.37024E+00
 -1       270 2.49725E+01-3.02854E-01 2.82416E+00 7.91062E-01 1.32702E-01 9.57298E+00
 -1       271 3.92945E+01 6.36908E-01-2.90008E+00-2.07911E+00 1.19020E+00-5.55761E+01
 -1       272 3.04323E+01-2.20621E-01-6.21499E-01-2.60613E+00-8.03381E-01-4.37822E+01
 -1       273 7.88932E+01-9.11360E-02 9.12899E+00-1.93552E+00 1.60749E+00-2.77335E+01
 -1       274-3.35681E+01 5.99245E-01-3.05472E+00 3.35511E-01 3.77757E-01-6.76264E+00
 -1       275-1.09059E+01 1.63283E-01 3.58058E-01 3.87172E-01 4.60356E-01 6.33862E+00
 -1       276-1.97040E+01-3.28706E-01 4.68738E+00-3.39803E+00-2.60776E-01-6.55126E+01
 -1       277-7.29594E+01-3.11726E-01-5.60354E+00-6.96815E-01-5.23955E-01 3.64350E+00
 -1       278 3.82054E+01-1.78644E-01 1.88680E+00-1.33479E+00-1.71273E-01-3.20449E+01
 -1       279-7.26618E+01 4.71201E-01 7.93511E-01-7.19799E-01 4.96664E-01-4.09936E+01
 -1       280 2.55768E+01 8.02394E-02-5.25398E+00-5.82070E+00-1.37448E-01-6.65075E+01
 -3
    1PSTEP                        16           1           1          
    1PGM                1.000000E+00                                  
    1PGK                9.267793E+11                                  
    1PHID                         -1                                  
    1PSUBC                         0                                  
    1PMODE                         6                                  
  100CL  106 1.53217E+05         280                     2    6MODAL      1
 -4  DISP        4    1
 -5  D1          1    2    1    0
 -5  D2          1    2    2    0
 -5  D3          1    2    3    0
 -5  ALL         1    2    0    0    1ALL
 -1         1 0.00000E+00 0.00000E+00 0.00000E+00
 -1         2 0.00000E+00 0.00000E+00 0.00000E+00
 -1         3 0.00000E+00 0.00000E+00 0.00000E+00
 -1         4 0.00000E+00 0.00000E+00 0.00000E+00
 -1         5 6.85549E+02 2.74310E+02-1.76025E+01
 -1         6 7.85661E+02 2.72516E+02-2.19032E+01
 -1         7-7.90827E+02 2.74506E+02-2.26532E+01
 -1         8-6.80666E+02 2.72201E+02-2.15465E+01
 -1         9 0.00000E+00 0.00000E+00 0.00000E+00
 -1        10 0.00000E+00 0.00000E+00 0.00000E+00
 -1        11 0.00000E+00 0.00000E+00 0.00000E+00
 -1        12 0.00000E+00 0.00000E+00 0.00000E+00
 -1        13 0.00000E+00 0.00000E+00 0.00000E+00
 -1        14 0.00000E+00 0.00000E+00 0.00000E+00
 -1        15 0.00000E+00 0.00000E+00 0.00000E+00
 -1        16 0.00000E+00 0.00000E+00 0.00000E+00
 -1        17 0.00000E+00 0.00000E+00 0.00000E+00
 -1        18 0.00000E+00 0.00000E+00 0.00000E+00
 -1        19 0.00000E+00 0.00000E+00 0.00000E+00
 -1        20 0.00000E+00 0.00000E+00 0.00000E+00
 -1        21 7.47133E+02 2.75255E+02-1.73139E+01
 -1        22 7.11886E+02 2.65770E+02-1.82029E+01
 -1        23 7.54524E+02 2.62815E+02-1.68097E+01
 -1        24-5.46086E+01 2.66553E+02-1.84371E+01
 -1        25 3.01599E+02 2.56487E+02-1.92243E+01
 -1        26-4.06258E+02 2.56690E+02-1.76603E+01
 -1        27-7.38108E+02 2.60586E+02-1.87581E+01
 -1        28-7.57065E+02 2.61312E+02-1.78607E+01
 -1        29-7.05925E+02 2.58676E+02-2.15381E+01
 -1        30 5.50253E+01 2.51737E+02-1.63399E+01
 -1        31 4.00559E+02 2.51598E+02-1.59002E+01
 -1        32-2.95733E+02 2.53719E+02-2.17725E+01
 -1        33 3.25772E+02-3.71440E+02 2.69911E+01
 -1        34 5.08786E+01-2.84687E+02 2.79525E+01
 -1        35 5.86064E+02-1.25408E+02 1.14279E+01
 -1        36 3.70253E+02-3.68459E+02 2.81709E+01
 -1        37 5.64620E+01-2.81583E+02 1.24156E+01
 -1        38 6.72274E+02-1.28089E+02 5.37516E+00
 -1        39-3.83552E+02-3.71760E+02 2.77802E+01
 -1        40-5.72931E+01-2.84696E+02 1.09590E+01
 -1        41-6.78290E+02-1.23385E+02 6.33043E+00
 -1        42-3.32412E+02-3.73520E+02 2.72320E+01
 -1        43-5.02340E+01-2.84083E+02 2.78914E+01
 -1        44-5.83887E+02-1.23918E+02 9.43327E+00
 -1        45 0.00000E+00 0.00000E+00 0.00000E+00
 -1        46 0.00000E+00 0.00000E+00 0.00000E+00
 -1        47 0.00000E+00 0.00000E+00 0.00000E+00
 -1        48 0.00000E+00 0.00000E+00 0.00000E+00
 -1        49 0.00000E+00 0.00000E+00 0.00000E+00
 -1        50 0.00000E+00 0.00000E+00 0.00000E+00
 -1        51 0.00000E+00 0.00000E+00 0.00000E+00
 -1        52 0.00000E+00 0.00000E+00 0.00000E+00
 -1        53 0.00000E+00 0.00000E+00 0.00000E+00
 -1        54 0.00000E+00 0.00000E+00 0.00000E+00
 -1        55 0.00000E+00 0.00000E+00 0.00000E+00
 -1        56 0.00000E+00 0.00000E+00 0.00000E+00
 -1        57 0.00000E+00 0.00000E+00 0.00000E+00
 -1        58 0.00000E+00 0.00000E+00 0.00000E+00
 -1        59 0.00000E+00 0.00000E+00 0.00000E+00
 -1        60 0.00000E+00 0.00000E+00 0.00000E+00
 -1        61 0.00000E+00 0.00000E+00 0.00000E+00
 -1        62 0.00000E+00 0.00000E+00 0.00000E+00
 -1        63 0.00000E+00 0.00000E+00 0.00000E+00
 -1        64 0.00000E+00 0.00000E+00 0.00000E+00
 -1        65 0.00000E+00 0.00000E+00 0.00000E+00
 -1        66 0.00000E+00 0.00000E+00 0.00000E+00
 -1        67 0.00000E+00 0.00000E+00 0.00000E+00
 -1        68 0.00000E+00 0.00000E+00 0.00000E+00
 -1        69 0.00000E+00 0.00000E+00 0.00000E+00
 -1        70 9.57888E+00 2.76307E+02-2.15977E+01
 -1        71 3.80682E+02 2.52834E+02-1.63569E+01
 -1        72-3.37075E+02 2.62311E+02-2.19066E+01
 -1        73-3.85822E+02 2.57262E+02-1.81260E+01
 -1        74 3.28996E+02 2.57996E+02-1.78049E+01
 -1        75-1.36077E+02 2.54707E+02-2.02152E+01
 -1        76-4.98804E+02 2.62814E+02-2.19584E+01
 -1        77-5.33457E+02 2.56551E+02-2.02002E+01
 -1        78 3.20113E+01 2.58012E+02-1.78904E+01
 -1        79-1.67985E+02 2.67150E+02-2.07904E+01
 -1        80-3.58821E+02 2.63572E+02-2.02892E+01
 -1        81-2.18949E+02 2.55867E+02-1.72814E+01
 -1        82-5.77604E+02 2.63369E+02-1.97114E+01
 -1        83-5.58508E+02 2.57157E+02-1.84139E+01
 -1        84-1.93120E+02 2.64208E+02-2.02955E+01
 -1        85-2.53837E+01 2.62968E+02-1.83164E+01
 -1        86 1.39610E+02 2.59160E+02-1.89681E+01
 -1        87 5.00711E+02 2.63724E+02-1.78329E+01
 -1        88 5.28809E+02 2.64774E+02-1.76867E+01
 -1        89 1.65893E+02 2.57359E+02-1.77986E+01
 -1        90 3.58096E+02 2.66243E+02-1.83470E+01
 -1        91 2.16777E+02 2.48811E+02-1.52988E+01
 -1        92 5.71938E+02 2.60594E+02-1.82310E+01
 -1        93 1.95810E+02 2.59686E+02-1.86923E+01
 -1        94 5.53511E+02 2.59882E+02-1.54160E+01
 -1        95 3.46493E+02-3.66818E+02 2.53392E+01
 -1        96 6.52071E+02-1.29375E+02 7.51111E+00
 -1        97 6.13447E+02-1.27104E+02 9.50507E+00
 -1        98 6.12302E+01-2.90204E+02 2.30908E+01
 -1        99 8.13519E+01-2.83612E+02 1.64980E+01
 -1       100-2.20689E+01-1.48634E+02 1.55259E+01
 -1       101-2.16408E+01-1.50826E+02 1.32826E+01
 -1       102 8.85432E+01-2.66812E+02 1.99223E+01
 -1       103 1.91175E+02-3.59528E+02 2.73878E+01
 -1       104 2.07295E+02-3.56926E+02 2.32039E+01
 -1       105 1.10227E+00-1.48726E+02 1.06486E+01
 -1       106-1.41538E+01-1.46250E+02 5.16529E+00
 -1       107 5.12255E+02-2.75252E+02 1.84880E+01
 -1       108 5.30645E+02-2.75062E+02 1.81738E+01
 -1       109 3.59738E+02-3.58872E+02 2.59627E+01
 -1       110 6.24098E+02-1.27206E+02 8.72478E+00
 -1       111 7.17646E+02 6.33598E+01-4.97012E+00
 -1       112 7.41272E+02 6.33671E+01-6.28981E+00
 -1       113 4.97218E+02-2.73451E+02 1.98694E+01
 -1       114 6.98387E+02 6.29752E+01-4.31195E+00
 -1       115 3.35772E+02-3.55407E+02 2.72350E+01
 -1       116 4.79206E+02-2.77569E+02 2.14789E+01
 -1       117 6.72420E+02 6.53758E+01-3.42458E+00
 -1       118 1.85114E+02-3.66527E+02 2.71426E+01
 -1       119 2.07818E+02-3.60353E+02 2.55948E+01
 -1       120-3.68969E+02-3.71644E+02 2.39667E+01
 -1       121-6.53369E+02-1.26158E+02 5.68415E+00
 -1       122-7.32392E+01-2.82057E+02 1.91273E+01
 -1       123-6.06631E+02-1.28121E+02 9.02804E+00
 -1       124-3.92924E+01-2.86342E+02 2.05172E+01
 -1       125-4.75899E+02-2.80973E+02 2.05843E+01
 -1       126-4.99930E+02-2.75069E+02 1.88660E+01
 -1       127-3.38781E+02-3.57916E+02 2.69307E+01
 -1       128-6.68572E+02 6.37366E+01-5.31811E+00
 -1       129-1.75779E+02-3.66190E+02 2.74239E+01
 -1       130-1.83108E+02-3.61363E+02 2.71187E+01
 -1       131 2.74884E+01-1.43551E+02 1.43038E+01
 -1       132-5.35170E+02-2.76270E+02 1.87685E+01
 -1       133-3.76294E+02-3.62834E+02 2.53092E+01
 -1       134-5.19693E+02-2.75221E+02 1.69443E+01
 -1       135-7.45647E+02 6.61565E+01-7.01470E+00
 -1       136-7.15299E+02 6.34190E+01-6.15115E+00
 -1       137-6.22666E+02-1.13985E+02 7.07375E+00
 -1       138-1.95815E+00-1.49969E+02 1.25074E+01
 -1       139-7.27362E+01-2.86278E+02 2.09022E+01
 -1       140-2.07542E+02-3.60963E+02 2.41657E+01
 -1       141 1.65786E+01-1.44421E+02 5.61968E+00
 -1       142-2.03656E+02-3.61642E+02 2.42820E+01
 -1       143-6.90533E+02 6.23385E+01-4.44656E+00
 -1       144 1.96843E+01-1.49949E+02 7.81308E+00
 -1       145-2.82490E+01-3.44969E+02 2.53897E+01
 -1       146-1.01182E+02-2.82800E+02 2.01866E+01
 -1       147-3.59949E+02-1.17561E+02 6.97953E+00
 -1       148 2.70135E+02-1.19070E+02 1.00702E+01
 -1       149 9.14192E+01-2.82611E+02 2.30209E+01
 -1       150 2.94524E+01-1.65632E+02 1.04310E+01
 -1       151 5.52888E+01-1.54261E+02 1.30839E+01
 -1       152-9.17232E+00-2.80194E+02 1.98705E+01
 -1       153-2.70340E+01-1.63537E+02 1.13671E+01
 -1       154-1.02431E+02-3.49450E+02 2.64215E+01
 -1       155 7.09607E+01-3.47920E+02 2.60533E+01
 -1       156-5.18484E+01-1.51501E+02 9.06104E+00
 -1       157 1.80047E+02-3.58408E+02 2.61361E+01
 -1       158-2.08109E+02-3.63579E+02 2.55773E+01
 -1       159-2.37478E+02-3.52717E+02 2.57852E+01
 -1       160-4.28485E+02-2.70597E+02 1.93364E+01
 -1       161-1.73896E+02-2.57321E+02 1.83927E+01
 -1       162-5.70394E+02 6.57690E+01-6.46317E+00
 -1       163-2.22997E+02 6.82741E+01-5.62057E+00
 -1       164-4.31238E+01-1.13861E+02 9.27127E+00
 -1       165 1.22988E+02 6.77314E+01-3.62282E+00
 -1       166 1.03112E+02-2.56365E+02 2.01339E+01
 -1       167 3.49939E+02-2.74658E+02 2.11469E+01
 -1       168 1.91753E+02-3.50147E+02 2.61752E+01
 -1       169 4.69236E+02 6.50933E+01-3.82242E+00
 -1       170 2.85089E+01-3.49062E+02 2.76078E+01
 -1       171-2.65404E+02-1.16598E+02 9.95243E+00
 -1       172 3.57136E+02-1.18316E+02 8.69972E+00
 -1       173-8.97792E+01-2.83805E+02 2.17747E+01
 -1       174 9.72844E+01-2.80267E+02 1.84695E+01
 -1       175-1.85877E+02-3.62381E+02 2.76023E+01
 -1       176-5.48782E+01-1.52108E+02 1.12052E+01
 -1       177-6.76562E+01-3.49446E+02 2.65865E+01
 -1       178-1.83735E+02-3.51337E+02 2.55289E+01
 -1       179-3.53212E+02-2.70607E+02 2.02345E+01
 -1       180-4.64337E+02 6.38987E+01-4.75629E+00
 -1       181-9.98436E+01-2.54870E+02 2.07892E+01
 -1       182 4.24624E+02-2.75457E+02 1.92389E+01
 -1       183 1.74258E+02-2.57575E+02 2.02092E+01
 -1       184 2.43236E+02-3.51809E+02 2.68495E+01
 -1       185 5.65087E+02 6.31694E+01-5.35412E+00
 -1       186 2.18936E+02 6.49972E+01-3.07870E+00
 -1       187 4.26521E+01-1.01142E+02 7.92225E+00
 -1       188-2.79476E+01-1.62658E+02 1.10338E+01
 -1       189 6.78501E+00-2.82943E+02 1.98102E+01
 -1       190 2.03493E+02-3.56256E+02 2.72621E+01
 -1       191 9.92832E+01-3.47703E+02 2.60800E+01
 -1       192 5.07062E+01-1.51900E+02 8.29560E+00
 -1       193 2.65021E+01-1.64700E+02 1.10089E+01
 -1       194-1.17333E+02 6.48442E+01-5.71207E+00
 -1       195-8.08566E+01-3.54030E+02 2.57945E+01
 -1       196 1.29921E+02-2.61324E+02 1.94278E+01
 -1       197 3.58237E+01-1.58023E+02 1.33742E+01
 -1       198 1.06797E+02-2.80536E+02 2.17433E+01
 -1       199 2.04349E+02-3.55684E+02 2.60625E+01
 -1       200 2.86759E+02-3.24151E+02 2.23299E+01
 -1       201 9.28365E+01-3.22059E+02 2.31066E+01
 -1       202-2.96605E+02-2.64288E+02 1.86049E+01
 -1       203-5.05977E+02-1.22197E+02 6.93798E+00
 -1       204-2.38854E+02-1.92953E+02 1.39403E+01
 -1       205-1.00920E+02-1.91057E+02 1.46226E+01
 -1       206 4.09205E+01-3.10255E+02 2.30112E+01
 -1       207-3.65806E+02 6.74832E+01-6.24685E+00
 -1       208-5.45996E+02 6.54037E+01-5.92032E+00
 -1       209-1.23298E+02-1.09483E+02 8.63340E+00
 -1       210-3.04201E+02 6.40477E+01-5.30575E+00
 -1       211 2.00860E+02 6.67061E+01-4.97636E+00
 -1       212 3.78703E+02 6.52062E+01-4.54174E+00
 -1       213 1.64478E+02-3.50517E+02 2.64125E+01
 -1       214 1.10692E+02-2.81694E+02 1.80278E+01
 -1       215 4.08443E+01-1.60369E+02 1.21859E+01
 -1       216 4.64065E+01-2.85389E+02 2.00587E+01
 -1       217-3.40522E+02 6.54154E+01-5.31998E+00
 -1       218-4.96542E+02 6.24001E+01-5.41308E+00
 -1       219-3.14849E+02-1.18138E+02 8.02341E+00
 -1       220-1.84570E+02-3.08059E+02 2.09315E+01
 -1       221 8.21806E+01-2.74673E+01 2.02479E+00
 -1       222 2.30611E+01-1.12577E+02 9.14968E+00
 -1       223 2.36120E+02-1.91928E+02 1.39012E+01
 -1       224 7.82378E+01-3.02255E+02 2.18922E+01
 -1       225 2.25351E+02-3.46950E+02 2.47831E+01
 -1       226 1.04312E+02-3.22040E+02 2.35221E+01
 -1       227 1.49014E+02-3.53964E+02 2.52602E+01
 -1       228-3.33171E+01-3.57605E+02 2.70532E+01
 -1       229-8.71291E+00-2.84982E+02 2.10617E+01
 -1       230 3.28338E+01-3.19596E+02 2.28261E+01
 -1       231-2.83854E+02-3.13596E+02 2.13626E+01
 -1       232-7.21393E+01-1.88765E+02 1.34123E+01
 -1       233-2.19407E+02-3.70999E+02 2.48954E+01
 -1       234 9.74163E+01-2.82378E+02 2.02736E+01
 -1       235-2.24887E+02-3.47359E+02 2.50118E+01
 -1       236-5.89844E+01-3.49445E+02 2.49539E+01
 -1       237-2.23134E+01-2.34470E+02 1.70898E+01
 -1       238 1.11863E+00-3.34700E+02 2.45084E+01
 -1       239 3.07240E+02 6.52109E+01-4.00230E+00
 -1       240 5.39392E+01-2.42200E+01 2.31524E+00
 -1       241 2.33242E+02-2.44319E+01 2.02689E+00
 -1       242 1.97889E+02-1.94403E+02 1.52339E+01
 -1       243 4.96888E+02 6.39791E+01-3.88709E+00
 -1       244 4.08476E+02-3.13624E+01 2.69349E+00
 -1       245 3.48594E+02-2.01918E+02 1.48892E+01
 -1       246 4.37969E+02-1.23430E+02 9.84761E+00
 -1       247 2.73211E+02-3.19730E+02 2.35869E+01
 -1       248-9.53223E+01-2.83438E+02 2.21295E+01
 -1       249-1.35146E+02-3.29407E+02 2.48815E+01
 -1       250-8.80383E+01-3.25172E+02 2.41419E+01
 -1       251-2.02193E+02-3.65996E+02 2.68894E+01
 -1       252-4.16936E+01-1.49239E+02 1.15355E+01
 -1       253-8.08952E+01-2.23245E+02 1.74049E+01
 -1       254-5.04233E+01-2.25700E+02 1.64003E+01
 -1       255-3.87352E+01-1.57117E+02 1.12768E+01
 -1       256-1.43477E+01-2.29678E+02 1.58739E+01
 -1       257-1.38364E+02-3.28872E+02 2.39943E+01
 -1       258 3.70104E+02-2.01905E+02 1.43369E+01
 -1       259 2.85540E+01-2.31614E+02 1.62160E+01
 -1       260-4.46503E+01-1.51147E+02 1.16879E+01
 -1       261-4.54157E+01-1.56359E+02 1.02982E+01
 -1       262-3.83362E+02 6.76728E+01-5.71881E+00
 -1       263 5.01967E+02-1.24801E+02 7.54668E+00
 -1       264 4.66141E+01-1.58690E+02 1.03061E+01
 -1       265 9.64112E+01-2.85080E+02 2.31938E+01
 -1       266 4.22191E+01-1.53771E+02 1.06849E+01
 -1       267-4.35634E+02-1.22629E+02 9.23364E+00
 -1       268-1.12190E+02-2.82897E+02 1.77377E+01
 -1       269 5.39973E+02 6.39627E+01-4.95296E+00
 -1       270-1.98844E+02 6.85908E+01-5.41739E+00
 -1       271-2.98578E+01-1.62155E+02 1.20920E+01
 -1       272-1.06308E+02-3.23684E+02 2.30381E+01
 -1       273 1.37336E+02-3.49563E+02 2.60858E+01
 -1       274 4.06057E+02-2.72224E+02 1.81328E+01
 -1       275 3.58565E+02 6.73404E+01-4.82083E+00
 -1       276 4.46357E+01-1.57621E+02 1.02428E+01
 -1       277-2.41661E+02-2.61674E+02 2.00629E+01
 -1       278-2.04939E+02-3.59141E+02 2.39055E+01
 -1       279 6.36649E+01-2.82326E+02 1.99181E+01
 -1       280-4.86047E+01-1.57125E+02 9.81007E+00
 -3
    1PSTEP                        17           1           1          
    1PGM                1.000000E+00                                  
    1PGK                9.267793E+11                                  
    1PHID                         -1                                  
    1PSUBC                         0                                  
    1PMODE                         6                                  
  100CL  106 1.53217E+05         280                     2    6MODAL      1
 -4  STRESS      6    1
 -5  SXX         1    4    1    1
 -5  SYY         1    4    2    2
 -5  SZZ         1    4    3    3
 -5  SXY         1    4    1    2
 -5  SYZ         1    4    2    3
 -5  SZX         1    4    3    1
 -1         1-1.81574E+06 6.83395E+05 2.90561E+04-1.01131E+07 7.64296E+05-8.30983E+05
 -1         2-2.41694E+06 7.72680E+05 2.37150E+05-1.02251E+07-8.12785E+05 2.26578E+06
 -1         3 2.54415E+06-9.30343E+05-2.20592E+05-1.00546E+07 8.72942E+05 2.22387E+06
 -1         4 1.90021E+06-7.67974E+05-2.71378E+04-9.65169E+06-8.59785E+05-9.12158E+05
 -1         5 1.94235E+06-4.95352E+05-9.35842E+04 7.15708E+05 1.00360E+05-6.98591E+04
 -1         6 1.85639E+06-4.88794E+05-2.92478E+05 6.00388E+05 1.78912E+04 2.22112E+05
 -1         7-1.92939E+06 5.69849E+05 2.32614E+05 5.64252E+05 2.32704E+04 1.23591E+05
 -1         8-1.67740E+06 5.48952E+05 8.29234E+04 5.64134E+05-4.28456E+03-1.66678E+05
 -1         9-3.86887E+06-4.94878E+05-5.25757E+04-1.22312E+07-7.04123E+03 1.56404E+06
 -1        10-1.18920E+07 7.26501E+00 9.82666E-01-1.23485E+07 9.31278E-01 1.38104E+06
 -1        11-8.59642E+06 5.50448E+00 2.40191E+00-1.22535E+07-1.75907E+00 6.05187E+05
 -1        12-2.36128E+03 1.14245E+05 1.11237E+05-1.54643E+07-9.39657E+03 7.98622E+05
 -1        13 6.24500E+06 4.98068E+00-3.75398E-01-1.42869E+07 7.66082E-01 9.60347E+05
 -1        14-4.52654E+06-5.27203E+00-7.37144E-02-1.38909E+07-3.06087E-03 8.26779E+05
 -1        15 1.01710E+05-2.59034E+05-3.25207E+05-1.09231E+07-7.92298E+04 1.31486E+06
 -1        16 8.19844E+06-3.46276E+00-3.01712E+00-1.22688E+07 2.36473E+00 6.85073E+05
 -1        17 1.06910E+07-2.18062E+00-2.84319E+00-1.20263E+07-1.19238E+00 9.48647E+05
 -1        18 1.65290E+05 2.86588E+05-1.87266E+04-1.54300E+07-2.34128E+04 7.53998E+05
 -1        19 4.57050E+06 5.60719E+00 5.72852E-01-1.41172E+07-7.65086E-01 8.05574E+05
 -1        20-6.06973E+06-4.62147E+00 1.37842E-01-1.38289E+07 7.90657E-02 9.08123E+05
 -1        21 3.36510E+06-4.59545E+05 1.15598E+05 9.63998E+05-3.94750E+04-1.60933E+05
 -1        22 9.55627E+05-5.85824E+05 1.15434E+04 4.97898E+05 4.40801E+04 7.62597E+04
 -1        23 7.74287E+05-9.11680E+05-1.83568E+05 4.58295E+05 3.68498E+04-1.57313E+05
 -1        24-6.31059E+05-5.32716E+04-4.59130E+04 1.96893E+06 5.53737E+04-3.96392E+04
 -1        25 3.48391E+05-3.10294E+05 5.37174E+04 1.14434E+06 1.57967E+05 5.88123E+04
 -1        26-6.72147E+05 3.18128E+05 4.90947E+02 1.20612E+06-1.92302E+05 1.29307E+05
 -1        27-2.46611E+06 2.75656E+05-1.03976E+05 9.35523E+05-3.95563E+04-1.30144E+05
 -1        28-8.05985E+05 5.10463E+05 1.55806E+05 5.06589E+05-2.10497E+05 7.79320E+04
 -1        29-7.72599E+05 5.86221E+05-1.11536E+05 3.87374E+05 1.99592E+05-2.38002E+05
 -1        30 4.41775E+05 2.15675E+05 2.89557E+04 1.62334E+06-1.28315E+05-1.60544E+05
 -1        31 8.44038E+05-8.31166E+05-1.75336E+04 1.01422E+06 8.51084E+04-2.57314E+04
 -1        32-5.08198E+05 8.18579E+05-3.80221E+03 1.09912E+06-2.37112E+05-1.27943E+05
 -1        33 2.43001E+07 4.82487E+05-3.87252E+04-3.55569E+05-1.35641E+05 1.13692E+05
 -1        34 1.30307E+07 9.89378E+05-5.72334E+05-2.84436E+06 3.97680E+04 5.48457E+05
 -1        35 1.43910E+07-5.42494E+04-7.57195E+04 5.32018E+05-3.49023E+04-4.11237E+05
 -1        36 2.91206E+07 1.23010E+05-5.27860E+04 9.17553E+04 1.52364E+05-9.19775E+04
 -1        37 1.48100E+07 9.08153E+05-4.88451E+05-2.84663E+06-1.62878E+05 2.46409E+05
 -1        38 1.66162E+07-1.68857E+05-1.89808E+05 8.10671E+05-1.97939E+05 2.28204E+05
 -1        39-2.95365E+07-2.29448E+05 7.02397E+04 5.04305E+05-1.78049E+05-1.18270E+05
 -1        40-1.53419E+07-6.32851E+05 3.89439E+05-2.94035E+06 4.76848E+05 7.73489E+05
 -1        41-1.62909E+07-2.64243E+05 2.07931E+05 6.86909E+05-8.85323E+04 4.11410E+05
 -1        42-2.42403E+07-7.28983E+05 4.22444E+04 4.42511E+05 2.23600E+05-7.14024E+04
 -1        43-1.32964E+07-7.80301E+05 5.16860E+05-2.46810E+06-3.29126E+05 1.69243E+05
 -1        44-1.39300E+07-1.34107E+05 1.63993E+04 7.29652E+05 3.42454E+05-6.55623E+05
 -1        45-3.05349E+05 2.32684E+05-2.89467E+04-1.60230E+07 1.24690E+05 1.33594E+06
 -1        46 8.33144E+06-1.18188E+06-8.20214E+04-1.40644E+07-5.37363E+04 8.64181E+05
 -1        47 6.93088E+06-1.71743E+06 1.06985E+05-1.49133E+07-4.68562E+05 6.50284E+05
 -1        48-7.10665E+06 1.02821E+06-5.99853E+04-1.42849E+07 1.66569E+05 1.18799E+06
 -1        49-7.43364E+06 2.68053E+05 8.82399E+04-1.34691E+07 1.78151E+05 8.06724E+05
 -1        50 2.88534E+06-3.26421E+05 4.70895E+04-1.23296E+07-1.39672E+05 1.49590E+06
 -1        51 4.23231E+05 4.70043E+00 1.09618E+00-1.28551E+07-7.04189E-01 1.04675E+06
 -1        52 9.47903E+05 7.14316E+00-5.97703E+04-1.41418E+07 4.89340E+05 1.03664E+06
 -1        53 6.10292E+06-7.40045E+05 2.96630E+04-1.47945E+07-3.55193E+05 8.12776E+05
 -1        54 3.01867E+05-9.71895E+05-3.27148E+04-1.33388E+07-5.02312E+05 1.90896E+06
 -1        55 2.68501E+06-3.13862E+05 9.58769E+04-1.24979E+07 1.08998E+05 3.47437E+05
 -1        56 3.59836E+06-3.67645E+05 1.84342E+04-1.57412E+07 1.74605E+05 9.48710E+05
 -1        57 4.05041E+06-6.32233E+05 1.33899E+05-1.53786E+07-2.49166E+05 1.05154E+06
 -1        58-5.36585E+05 6.42860E+05-5.59571E-01-1.55040E+07-2.00767E+04 1.10941E+06
 -1        59-3.49732E+06-5.47761E+00-1.95634E-01-1.42795E+07 1.60689E-01 9.25749E+05
 -1        60-3.04995E+06 3.17890E+05-4.05891E+04-1.21036E+07 1.38656E+05 1.41667E+06
 -1        61-6.50536E+06 2.63208E+05-9.66899E+03-1.42002E+07 1.26773E+05 5.43197E+05
 -1        62 4.68366E+06-3.08961E+05-3.02667E+04-1.50728E+07 1.69615E+05 8.18636E+05
 -1        63 4.01837E+05-2.59039E+00 5.32585E-01-1.53136E+07-1.08980E+00 1.07020E+06
 -1        64-5.34703E+06 8.08613E+05-1.55160E+05-1.26278E+07 3.26728E+05 1.86575E+06
 -1        65-3.46257E+06 4.72059E+05-1.06292E+05-1.19554E+07-1.82887E+05 3.64806E+05
 -1        66-3.44618E+06-5.25036E+00 6.37332E-01-1.51015E+07-1.23294E+00 1.09827E+06
 -1        67-4.83582E+06-5.36767E+00 6.57773E+04-1.42683E+07-4.21363E+05 5.38832E+05
 -1        68-3.01200E+06 2.46499E+05-4.78308E+04-1.46474E+07 9.93365E+04 8.88593E+05
 -1        69-1.59817E+06-3.29880E+00-1.27678E+00-1.28069E+07 1.41258E+00 1.17052E+06
 -1        70 1.24811E+06-6.10567E+04 4.32302E+03 2.21323E+06-1.88696E+05-3.53808E+04
 -1        71-7.55617E+05-5.06502E+05 4.23580E+04 1.08137E+06-1.26586E+05-2.13484E+05
 -1        72-9.63307E+05 5.67239E+05-1.34132E+05 1.69068E+06-4.63823E+04 2.61758E+05
 -1        73 7.87506E+05 1.10838E+05-1.17433E+05 9.56894E+05 9.56770E+04-4.39412E+05
 -1        74-9.33803E+04-7.86405E+05 1.04938E+05 1.38557E+06-1.73668E+05-2.32924E+05
 -1        75-3.31574E+05 9.03966E+05-7.91862E+03 1.86968E+06-1.97629E+05 6.57838E+04
 -1        76-5.73369E+05 5.64364E+05-1.89691E+04 1.02035E+06 1.37305E+05 2.01974E+05
 -1        77-2.71011E+05-3.56160E+05-2.23644E+05 1.05780E+06-9.49357E+04 3.63742E+04
 -1        78 2.37076E+04-5.27644E+05 2.10312E+05 1.72365E+06-5.77552E+05-1.95647E+05
 -1        79 4.50207E+05 5.26196E+04 5.33060E+04 1.65878E+06-6.25127E+05-1.01641E+05
 -1        80 1.67404E+06-6.28834E+05 2.27486E+04 1.68201E+06 9.66428E+03-1.80619E+05
 -1        81 9.66207E+05-6.20314E+05-5.82709E+04 1.31575E+06-1.99068E+04-2.13251E+05
 -1        82-4.73848E+05 9.91457E+05 1.47019E+05 7.12450E+05-3.01627E+05-1.66000E+05
 -1        83-8.19373E+04 4.50074E+04-1.66900E+05 8.37162E+05 1.68622E+05-3.42100E+05
 -1        84 1.58708E+06-6.07124E+05-2.27617E+05 5.13530E+05 4.83292E+05-7.46043E+02
 -1        85-1.72510E+05 7.43363E+05-1.26423E+05 1.66052E+06 1.26610E+05 1.22905E+05
 -1        86-6.82924E+05 1.17782E+05 9.18687E+04 1.71793E+06-2.62726E+05-1.06331E+05
 -1        87 5.15372E+05-1.01558E+06 5.95524E+04 9.03835E+05-1.82640E+05-4.14571E+04
 -1        88 1.46907E+06-1.03483E+06 9.82133E+04 9.95328E+05 2.02394E+05-1.23172E+05
 -1        89 7.98704E+03 5.50889E+05-1.24143E+05 2.82464E+06 3.67326E+05-1.24820E+05
 -1        90 9.14907E+05 4.20724E+04-5.66059E+04 2.15003E+06 1.77534E+05 4.16583E+05
 -1        91-6.73333E+05 1.00519E+05 1.04842E+05 1.12937E+06-1.45882E+05-2.48567E+05
 -1        92 5.22123E+05-1.18761E+06-1.87391E+05 7.52314E+05 3.21642E+05 1.91732E+02
 -1        93-1.59783E+06 6.06557E+05 2.02919E+05 9.67253E+05-7.43804E+05 1.10260E+04
 -1        94 1.50061E+03-8.71852E+05 1.24333E+05 9.59728E+05-4.84795E+05-4.08124E+05
 -1        95 2.43828E+07 6.05430E+05-1.74033E+05-7.09738E+05 1.93174E+03 2.07298E+05
 -1        96 1.52977E+07 5.96612E+05-1.18777E+05 1.23619E+06 8.97562E+04-1.58628E+05
 -1        97 1.52118E+07 6.96755E+05-1.53787E+05 1.06134E+06-1.71096E+04-8.39660E+04
 -1        98 1.75081E+07 5.09686E+05-1.28196E+05-3.59210E+06 5.29224E+04 1.21494E+06
 -1        99 1.70513E+07-7.22065E+04-8.37530E+04-5.11517E+06 2.96053E+05 9.19740E+05
 -1       100 6.84684E+06-3.25767E+05-1.35299E+05-6.11126E+06 7.02505E+04 1.70270E+04
 -1       101 7.59075E+06-1.31518E+06-1.59047E+05-5.74659E+06-1.54057E+05 2.19030E+06
 -1       102 1.38596E+07-1.20288E+06-2.75564E+05-5.64628E+06 1.77357E+05 9.06368E+05
 -1       103 2.07411E+07 1.39022E+06-1.89488E+05-1.61345E+06 7.64314E+05 1.22457E+06
 -1       104 2.11317E+07 4.09411E+05-7.81199E+04-3.56050E+06-3.25635E+05 2.74820E+05
 -1       105 6.95323E+06-8.09491E+05-2.21731E+05-9.00725E+06 1.86879E+05 5.48202E+05
 -1       106 7.21632E+06-2.25464E+05-1.35113E+05-6.31299E+06-4.55429E+04 9.46487E+05
 -1       107 2.31647E+07-2.13018E+05-3.96610E+04 6.91755E+05-1.56389E+05-5.26265E+04
 -1       108 2.41513E+07-6.42313E+05-4.33772E+04 2.80696E+05 2.75217E+05-4.50433E+04
 -1       109 2.63967E+07 8.73905E+05 1.13267E+05-6.99592E+05-1.07805E+05 1.13601E+05
 -1       110 1.60255E+07 5.79715E+05-8.34065E+04 1.45992E+06-6.52981E+04-2.53710E+05
 -1       111 9.00071E+06 2.64234E+05-3.26498E+04 1.06342E+06 1.28425E+04-3.11440E+05
 -1       112 8.38074E+06 5.28420E+05-2.31648E+05 7.34320E+05 1.57745E+04 9.24727E+04
 -1       113 2.25511E+07 1.62731E+05-2.52577E+05 8.05681E+05 5.63318E+04-1.62198E+05
 -1       114 8.84239E+06 3.05862E+05 5.74276E+04 7.12539E+05-1.08982E+05-1.75255E+05
 -1       115 2.59220E+07 2.99084E+05-6.60781E+04-1.18994E+06-3.08098E+04 1.58856E+05
 -1       116 2.12624E+07-6.75967E+04-2.67205E+04 3.38580E+05-2.23745E+04 1.89670E+05
 -1       117 8.09163E+06 4.38169E+05-1.71079E+05 7.98696E+05-2.56683E+04-8.05769E+03
 -1       118 2.17147E+07 8.13819E+05-1.12687E+05-2.61273E+06-1.64162E+05 3.75431E+05
 -1       119 2.38852E+07 2.76222E+05-6.92874E+04-2.25706E+06 3.46815E+05 1.14955E+05
 -1       120-2.45672E+07-9.86649E+05 1.00761E+05-6.10113E+05 9.19005E+04 4.41630E+05
 -1       121-1.54278E+07-7.26306E+05-6.53206E+04 1.79941E+06-2.40380E+04-4.26733E+03
 -1       122-1.70753E+07 8.73133E+05 5.03383E+05-4.65791E+06-1.44334E+05 6.00664E+05
 -1       123-1.50092E+07-8.88128E+05 6.48505E+04 1.65689E+06-6.09849E+04-1.35914E+05
 -1       124-1.61303E+07-1.53580E+04 4.69613E+05-2.60779E+06 3.05504E+04 8.15575E+05
 -1       125-2.02591E+07-1.21123E+06 4.13159E+04 1.39865E+06 7.98207E+03 1.31639E+05
 -1       126-1.98286E+07-6.95872E+05 1.97877E+05 6.80452E+05-3.61327E+05-2.88598E+05
 -1       127-2.66616E+07-7.56521E+05 1.30608E+05 8.04994E+05 1.10293E+05 3.57229E+05
 -1       128-8.11768E+06-2.42795E+05 8.17256E+04 8.86286E+05-1.85498E+04-1.66369E+05
 -1       129-2.33172E+07 2.30733E+05 2.30087E+05-9.68998E+05 2.84051E+05 8.74415E+04
 -1       130-2.49990E+07-2.63265E+05 3.42951E+05-2.18427E+06-2.43785E+05 9.96942E+05
 -1       131-5.38785E+06-5.84185E+04 3.73927E+05-5.28368E+06-1.78889E+05-1.14625E+05
 -1       132-2.26374E+07-6.36358E+05-1.54125E+05 1.08702E+06-7.37943E+04-2.80680E+05
 -1       133-2.66291E+07-1.14176E+06-1.52537E+05 1.96433E+04 4.35207E+04 1.11595E+05
 -1       134-1.99219E+07-1.06050E+06-3.33461E+04 5.88747E+05 2.74599E+05 6.67039E+05
 -1       135-8.58938E+06-3.60364E+05 8.29509E+04 9.03257E+05 1.51511E+04 1.11555E+05
 -1       136-8.75518E+06-6.16666E+04 1.11020E+04 1.19994E+06-8.29821E+04 4.81801E+03
 -1       137-1.47655E+07 7.22178E+05 1.56351E+05 1.14177E+05-3.14463E+04-8.11174E+03
 -1       138-7.60613E+06 2.29670E+04 2.19027E+05-8.43839E+06-4.80840E+05 1.05589E+03
 -1       139-1.47586E+07-8.50613E+05-1.94905E+05-4.44347E+06 6.39572E+04 1.64344E+06
 -1       140-2.48636E+07 4.02601E+05 1.60158E+05-2.69087E+06 2.28969E+05 7.16190E+05
 -1       141-6.55646E+06 8.79875E+04 3.95462E+05-5.90084E+06 1.33016E+05 9.16064E+05
 -1       142-2.67578E+07 1.15117E+06 4.90398E+05-6.50081E+05-5.78403E+05-3.75181E+05
 -1       143-8.48554E+06 1.85288E+05-7.83279E+04 1.03126E+06-7.54308E+04-1.34320E+05
 -1       144-6.30504E+06 2.85694E+05-4.53411E+04-5.35487E+06 3.93707E+05 2.42421E+06
 -1       145-1.25713E+06-9.47678E+04-3.34908E+04-6.36798E+06 1.33160E+05 1.20256E+05
 -1       146-9.45058E+06 2.74944E+05-9.68860E+04-1.08306E+07-1.58592E+05 2.88393E+05
 -1       147-6.93889E+06-7.12324E+05 9.24633E+04 1.19370E+06 1.60385E+04-1.31618E+05
 -1       148 4.66010E+06 1.19621E+06-7.29601E+04 1.44386E+06 1.89136E+05-1.99479E+05
 -1       149 7.65389E+06-4.82564E+05-6.81543E+03-1.03602E+07-1.35088E+05 5.80175E+05
 -1       150 4.48168E+06-7.50283E+05 1.65752E+05-1.30953E+07-1.16421E+04 3.58765E+05
 -1       151 4.76254E+06-1.04784E+05 8.56265E+04-9.97650E+06 3.17269E+05-4.12814E+05
 -1       152-1.12997E+06 1.84561E+05 1.39915E+05-1.19373E+07-2.78740E+04 1.10459E+05
 -1       153-5.70809E+06 9.55529E+05 4.31506E+04-1.29828E+07-2.83933E+04 6.68997E+05
 -1       154-5.57009E+06-7.17724E+05-5.95128E+04-8.54797E+06 2.23872E+05 4.24061E+05
 -1       155 3.33359E+06 7.26771E+05-1.56865E+05-9.31120E+06 2.08992E+05 1.77700E+05
 -1       156-5.65166E+06-1.22391E+05-2.15333E+05-1.01517E+07 3.98491E+05 1.20634E+06
 -1       157 1.62008E+07 8.77941E+04-3.58028E+04-4.78284E+06-6.08940E+05 7.87960E+05
 -1       158-1.96583E+07-1.55856E+05 2.53994E+04-4.94598E+06-1.44589E+05-5.71099E+04
 -1       159-1.30438E+07-1.07160E+06-8.76359E+04-2.93278E+06 3.83349E+05 1.74858E+05
 -1       160-1.72966E+07-4.60579E+05-1.43447E+04 3.45198E+05-2.40285E+05 2.90434E+05
 -1       161-4.39485E+06-1.11387E+06 1.35487E+05-1.41728E+06-3.17492E+05 1.81878E+05
 -1       162-4.70344E+06-1.88286E+05 2.05408E+04 8.93482E+05 3.13964E+05 2.69373E+04
 -1       163-3.06404E+06-2.67525E+05 3.43046E+04 1.48513E+06 6.81996E+04-3.08871E+05
 -1       164-1.05438E+06-9.34148E+04-1.51854E+05-8.75904E+04 2.21629E+05-1.58948E+05
 -1       165 1.34293E+06 2.77752E+05-1.12745E+05 1.62481E+06 1.79228E+05 9.63484E+04
 -1       166 1.06980E+06 1.35115E+06-4.98835E+04-1.68886E+06-1.59247E+05-1.38102E+05
 -1       167 1.37870E+07 8.20498E+05 8.35157E+03 5.65493E+05-1.19693E+05-2.08802E+05
 -1       168 9.24974E+06 1.05879E+06-2.32215E+04-3.52880E+06 6.58711E+04-2.70693E+05
 -1       169 3.77809E+06 2.57540E+05-6.87760E+04 1.13649E+06 2.88015E+05-1.70749E+05
 -1       170 1.36914E+06 6.98991E+04 6.70692E+04-5.16550E+06-7.92554E+04-2.36761E+04
 -1       171-4.14578E+06-1.22810E+06 1.75299E+04 7.87199E+05-4.19228E+04-2.19451E+05
 -1       172 5.99206E+06 1.20204E+06 1.22346E+05 1.30936E+06 1.88559E+04-3.56936E+04
 -1       173-7.75714E+06 3.04784E+05-1.11805E+04-1.12038E+07-1.53865E+04 6.50948E+05
 -1       174 1.01515E+07-6.00761E+05-1.23477E+05-1.01423E+07 1.36654E+05-3.91014E+05
 -1       175-1.56712E+07-3.28225E+05 7.49961E+04-5.29409E+06 3.51602E+05 5.18481E+05
 -1       176-4.96199E+06 5.22532E+04-9.96003E+04-1.02158E+07-4.90821E+05-3.07766E+05
 -1       177-2.55816E+06-6.43962E+05 6.76588E+04-8.94283E+06-4.46274E+04 1.80928E+05
 -1       178-9.05031E+06-9.78300E+05-6.67478E+03-3.05281E+06-5.09244E+04 9.59880E+04
 -1       179-1.37219E+07-8.54671E+05-6.28783E+03 3.08259E+05 4.27793E+05-4.43903E+05
 -1       180-3.36405E+06-2.07996E+05 2.92392E+04 7.27545E+05-1.10238E+05-1.96956E+05
 -1       181-1.52803E+06-1.81259E+06 5.10898E+04-7.87602E+05-6.72076E+04-5.21991E+04
 -1       182 1.70406E+07 7.89035E+05 1.11045E+05 5.66166E+05-1.37996E+05 1.72762E+05
 -1       183 3.39127E+06 1.42543E+06 9.85669E+04-1.50684E+06 8.56530E+03 1.47247E+04
 -1       184 1.35819E+07 7.75854E+05 1.78593E+05-3.37380E+06-3.64222E+05 2.98887E+05
 -1       185 4.42914E+06 5.31365E+05 2.87302E+04 9.72546E+05-2.89776E+05 1.24215E+05
 -1       186 2.71158E+06 2.55663E+05 9.09664E+04 1.23402E+06 3.16611E+04-3.86609E+05
 -1       187 1.06065E+06-1.29640E+04-1.36712E+05 1.16391E+04 4.70316E+05-2.28504E+03
 -1       188-4.27199E+06 8.12136E+05-3.40394E+03-1.32133E+07-8.97180E+04 3.33753E+05
 -1       189 1.14034E+06 1.80913E+05 6.23730E+04-1.18578E+07-2.20476E+05 5.36682E+05
 -1       190 1.97625E+07-1.32239E+05-1.68799E+05-4.63119E+06 5.48566E+05-4.56156E+05
 -1       191 6.64969E+06 5.96990E+05-2.26607E+04-9.12615E+06-3.57776E+05-2.09117E+05
 -1       192 5.42657E+06-1.07784E+05 8.71403E+04-9.97864E+06-3.07657E+05 1.23058E+06
 -1       193 5.53562E+06-9.57947E+05-1.00410E+05-1.28131E+07 1.04576E+05 3.59770E+05
 -1       194-1.11445E+06-2.13488E+05-6.51252E+04 1.25220E+06 5.49254E+04 4.01197E+04
 -1       195-4.28760E+06-6.44830E+05 4.24887E+04-9.53124E+06 1.23124E+04 6.10543E+05
 -1       196 3.48014E+06 1.10456E+06-8.49011E+04-1.51641E+06 2.07349E+04 5.98576E+04
 -1       197 1.18276E+07-1.17820E+06-1.03506E+04-8.73255E+06-3.30096E+05 1.01404E+06
 -1       198 1.44332E+07-7.78584E+05-1.93241E+05-7.71640E+06 2.79001E+05-6.44577E+04
 -1       199 1.04627E+07 1.74648E+06-7.29811E+04-3.86358E+06 2.75789E+05 7.21255E+05
 -1       200 1.33989E+07 1.33475E+06-1.34773E+05-1.43919E+06-1.68377E+05 3.60332E+05
 -1       201 6.57906E+06-2.81574E+05-1.43446E+04-9.43055E+06-9.23431E+04-4.45809E+05
 -1       202-8.85700E+06-6.64108E+05-1.45711E+04-1.30389E+06 3.21475E+04 1.94318E+04
 -1       203-1.09852E+07-7.32724E+05-3.19210E+04 1.57176E+06-1.33925E+04-9.59528E+04
 -1       204-5.49530E+06-3.26854E+05-1.24936E+05 7.31326E+04 1.94305E+05-4.28183E+03
 -1       205-1.89286E+06-7.48215E+05 9.58989E+04 1.45823E+05-1.69271E+05-7.40176E+04
 -1       206 1.09995E+06 2.33147E+05-4.43840E+04-4.02836E+06 6.43324E+04 7.62915E+04
 -1       207-4.98394E+06-5.75354E+05 3.53411E+04 1.72956E+06-3.08110E+05-3.02599E+05
 -1       208-6.32763E+06-2.77963E+05-5.41763E+04 1.33212E+06-1.01680E+05-2.66527E+05
 -1       209-1.24880E+06-3.26212E+05-1.04257E+05 7.57319E+04 2.93948E+05-2.20745E+04
 -1       210-2.93233E+06 4.51634E+04-3.34198E+04 1.24451E+06 6.70955E+04 1.09581E+05
 -1       211 2.96452E+06-1.65812E+05 1.37326E+05 1.77017E+06-1.52716E+05-2.78373E+05
 -1       212 3.19712E+06-3.00194E+04 1.48750E+05 1.36583E+06 2.06036E+04-2.71125E+05
 -1       213 9.36117E+06 6.77754E+05 6.67589E+04-6.70398E+06-8.50724E+04 6.03383E+05
 -1       214 1.36934E+07-1.57887E+05-1.79596E+05-7.27112E+06 3.81425E+05-1.93665E+05
 -1       215 7.76313E+06-1.31556E+06 1.57428E+04-1.24381E+07-4.15698E+05 1.15353E+06
 -1       216 3.75568E+06-4.11568E+05 3.02005E+04-1.17351E+07-2.74354E+05 5.99517E+05
 -1       217-5.24025E+06-5.69192E+04 3.76863E+04 2.01424E+06 1.69395E+05 7.59568E+04
 -1       218-6.66666E+06-2.84634E+05-9.38792E+04 1.35941E+06 5.44912E+04 1.17554E+05
 -1       219-8.43606E+06-4.85801E+05 1.02584E+05 9.27078E+05-3.86937E+05-4.74389E+04
 -1       220-7.29325E+06-7.51682E+05-1.36683E+05-1.39937E+06 5.38336E+05 4.31105E+05
 -1       221 1.87037E+06 4.48213E+05-9.72385E+04 9.26348E+05 2.33548E+04-1.82746E+05
 -1       222 7.75955E+05-4.45343E+05 8.91551E+04-6.94768E+04 6.74022E+04-1.72957E+05
 -1       223 3.87736E+06 1.70679E+06-1.87737E+04 4.31844E+04 1.20907E+05 1.07124E+05
 -1       224 1.77052E+06 1.68089E+06 5.83467E+04-2.88239E+06-5.91735E+04 1.35141E+05
 -1       225 1.15341E+07 7.20614E+05 1.07637E+05-3.37904E+06-1.36499E+04 2.70203E+05
 -1       226 6.34255E+06 8.39670E+04 1.21861E+05-8.83667E+06 1.88131E+05 1.04479E+06
 -1       227 7.60329E+06 5.12766E+05 9.57480E+04-6.27234E+06-3.99480E+05 2.84272E+05
 -1       228-1.30220E+06-1.62151E+05 9.11350E+04-7.71120E+06-1.76018E+05 2.89924E+05
 -1       229-7.63251E+05 3.53039E+05-8.59313E+03-1.16425E+07 5.73339E+04 6.86842E+05
 -1       230 2.14585E+06 4.05156E+05-6.66633E+04-9.90940E+06 2.12313E+05 1.08652E+06
 -1       231-9.99296E+06-1.53420E+06 1.62707E+05-2.38688E+06-1.35758E+05 1.23867E+05
 -1       232-1.24299E+06-8.52054E+05 5.05196E+04-1.77192E+06-2.07611E+05 6.34932E+05
 -1       233-1.43703E+07-1.23893E+06 1.44878E+05-4.47662E+06 2.49036E+05 2.65020E+05
 -1       234 1.14224E+07-3.71397E+05-1.50429E+05-8.74057E+06 2.03843E+05 9.95796E+05
 -1       235-1.10058E+07-1.03083E+06-8.57349E+04-3.47850E+06-3.65994E+03 2.94638E+05
 -1       236-2.45123E+06-1.43328E+06-1.38156E+04-7.73230E+06 6.59341E+04 4.60267E+05
 -1       237-2.06378E+06-4.98271E+04-2.94767E+03-1.33301E+07-9.59711E+03 1.21643E+06
 -1       238-4.85264E+05 2.04276E+05-1.69068E+03-5.58221E+06 9.06623E+04 5.54046E+05
 -1       239 2.59716E+06 1.66254E+05 1.42186E+03 1.38809E+06 1.88681E+04-5.98886E+04
 -1       240 1.17492E+06 1.68144E+04-3.71353E+04 7.29112E+05-2.82773E+04 4.11110E+04
 -1       241 2.52813E+06-5.83332E+04 5.70071E+04 8.38848E+05-3.00462E+05-2.17295E+05
 -1       242 3.91391E+06 1.30878E+06-9.06483E+04 5.15975E+05 6.22587E+04-6.94532E+04
 -1       243 6.25381E+06 1.51253E+05-5.48761E+04 8.23391E+05-8.16883E+04-1.61283E+05
 -1       244 4.22531E+06 4.82261E+05 3.88141E+04 5.49679E+05-1.65262E+05-1.13221E+05
 -1       245 9.19798E+06 1.16421E+06-1.41417E+05 7.74433E+05-2.14245E+04 1.16558E+05
 -1       246 9.89079E+06 8.75492E+05-1.01030E+05 1.51401E+06 8.84600E+04-2.29848E+05
 -1       247 1.24690E+07 1.10722E+06-4.42045E+04-1.18961E+06 1.42020E+05 7.23228E+04
 -1       248-1.17543E+07 1.69297E+05 1.73737E+05-7.26739E+06 2.22711E+05 9.48822E+05
 -1       249-1.03046E+07-6.51767E+05 1.98134E+05-7.15950E+06-2.95422E+05 1.08387E+05
 -1       250-5.95591E+06-3.74239E+05 3.31144E+04-1.06943E+07 5.23165E+04 8.22715E+05
 -1       251-1.25784E+07-1.13672E+06 3.34337E+04-4.36352E+06-1.01865E+05 2.68130E+05
 -1       252-1.07757E+07 8.33501E+05 2.95235E+05-8.05416E+06 1.65210E+05 1.09889E+06
 -1       253-5.49452E+06 1.15222E+05-2.77609E+05-9.96616E+06 6.82956E+04 8.26637E+05
 -1       254-6.56690E+06 9.12531E+05-8.17241E+04-1.25895E+07 2.06007E+05 6.61891E+05
 -1       255-7.52630E+06 1.10757E+06-4.56414E+04-1.29130E+07-1.17915E+04 1.06581E+06
 -1       256-2.02486E+06 4.11105E+05-5.41140E+04-1.26997E+07 8.09611E+04 7.14053E+05
 -1       257-1.20018E+07 3.61669E+05 2.31013E+05-7.30654E+06 4.32220E+05 1.18939E+06
 -1       258 9.02563E+06 8.31430E+05-1.35517E+04 3.08388E+05-1.13320E+05-3.47968E+05
 -1       259 3.41557E+06-6.92677E+05-1.24297E+05-1.30310E+07-1.41633E+05 5.90794E+05
 -1       260-1.12039E+07 7.82545E+05 3.32753E+05-9.00104E+06-1.18148E+05 8.31397E+05
 -1       261-8.91871E+06 9.02980E+05 5.73012E+04-1.25783E+07-6.72569E+04 4.23999E+05
 -1       262-3.35970E+06 2.87242E+03-3.03910E+04 1.29273E+06 9.93202E+04-3.44081E+05
 -1       263 1.06946E+07 8.89568E+05-1.81896E+04 1.50318E+06 5.42076E+04 6.12642E+04
 -1       264 9.29443E+06-1.38025E+06-2.25970E+05-1.21815E+07 3.47334E+05 9.58808E+04
 -1       265 1.19884E+07 1.00697E+05-1.31346E+05-7.36062E+06-3.21861E+05 8.68063E+05
 -1       266 1.17615E+07-8.75510E+05-1.20513E+05-9.15544E+06 1.32484E+05 1.18772E+06
 -1       267-9.42006E+06-1.29309E+06 8.02214E+04 1.22583E+06-1.82463E+05-1.70659E+05
 -1       268-1.30756E+07 4.07694E+05 1.70656E+05-7.79266E+06-3.01844E+05 3.07978E+05
 -1       269 6.36795E+06 2.48870E+05-9.61871E+04 1.12433E+06 6.37621E+04-1.48608E+05
 -1       270-2.87577E+06 1.01469E+05-3.83854E+04 1.24683E+06 1.01497E+05-1.72989E+05
 -1       271-5.70344E+06 1.12228E+06-6.12826E+04-1.37602E+07-1.51249E+05 5.51574E+05
 -1       272-6.08145E+06-8.64268E+05-2.81675E+02-9.84336E+06-1.96307E+05 4.43807E+05
 -1       273 7.50756E+06 1.20274E+06-1.48425E+05-6.44087E+06 3.36517E+05 5.82518E+05
 -1       274 1.53360E+07 1.11297E+06 2.29040E+04 3.51804E+05 1.20060E+05 8.61908E+04
 -1       275 5.38145E+06 6.46383E+05-7.67567E+04 1.94166E+06-1.03814E+04-6.99228E+04
 -1       276 9.11619E+06-4.70180E+05-5.86529E+03-1.09288E+07 2.72864E+05 1.67595E+06
 -1       277-6.92850E+06-1.26607E+06 9.69544E+04-6.05866E+05 1.74875E+04-2.07568E+05
 -1       278-1.64341E+07-7.92582E+05-9.06876E+04-5.70260E+06-1.86139E+05 4.53431E+05
 -1       279 6.13987E+06-4.98423E+05-4.29629E+04-1.15062E+07-4.02351E+04 2.33135E+05
 -1       280-8.87493E+06 7.70520E+05 1.09859E+05-1.10455E+07-1.09341E+05 1.54515E+06
 -3
    1PSTEP                        18           1           1          
    1PGM                1.000000E+00                                  
    1PGK                9.267793E+11                                  
    1PHID                         -1                                  
    1PSUBC                         0                                  
    1PMODE                         6                                  
  100CL  106 1.53217E+05         280                     2    6MODAL      1
 -4  TOSTRAIN    6    1
 -5  EXX         1    4    1    1
 -5  EYY         1    4    2    2
 -5  EZZ         1    4    3    3
 -5  EXY         1    4    1    2
 -5  EYZ         1    4    2    3
 -5  EZX         1    4    3    1
 -1         1-9.07871E+00 3.41697E+00 1.45280E-01-5.05654E+01 3.82148E+00-4.15491E+00
 -1         2-1.20847E+01 3.86340E+00 1.18575E+00-5.11255E+01-4.06393E+00 1.13289E+01
 -1         3 1.27207E+01-4.65171E+00-1.10296E+00-5.02732E+01 4.36471E+00 1.11194E+01
 -1         4 9.50104E+00-3.83987E+00-1.35689E-01-4.82584E+01-4.29892E+00-4.56079E+00
 -1         5 9.71177E+00-2.47676E+00-4.67921E-01 3.57854E+00 5.01799E-01-3.49296E-01
 -1         6 9.28197E+00-2.44397E+00-1.46239E+00 3.00194E+00 8.94558E-02 1.11056E+00
 -1         7-9.64697E+00 2.84925E+00 1.16307E+00 2.82126E+00 1.16352E-01 6.17956E-01
 -1         8-8.38701E+00 2.74476E+00 4.14617E-01 2.82067E+00-2.14228E-02-8.33391E-01
 -1         9-1.93444E+01-2.47439E+00-2.62879E-01-6.11560E+01-3.52062E-02 7.82022E+00
 -1        10-5.94599E+01 3.63250E-05 4.91333E-06-6.17427E+01 4.65639E-06 6.90520E+00
 -1        11-4.29821E+01 2.75224E-05 1.20096E-05-6.12674E+01-8.79537E-06 3.02593E+00
 -1        12-1.18064E-02 5.71227E-01 5.56186E-01-7.73215E+01-4.69829E-02 3.99311E+00
 -1        13 3.12250E+01 2.49034E-05-1.87699E-06-7.14343E+01 3.83041E-06 4.80174E+00
 -1        14-2.26327E+01-2.63601E-05-3.68572E-07-6.94545E+01-1.53043E-08 4.13390E+00
 -1        15 5.08551E-01-1.29517E+00-1.62603E+00-5.46157E+01-3.96149E-01 6.57432E+00
 -1        16 4.09922E+01-1.73138E-05-1.50856E-05-6.13438E+01 1.18236E-05 3.42536E+00
 -1        17 5.34552E+01-1.09031E-05-1.42159E-05-6.01314E+01-5.96189E-06 4.74324E+00
 -1        18 8.26451E-01 1.43294E+00-9.36328E-02-7.71500E+01-1.17064E-01 3.76999E+00
 -1        19 2.28525E+01 2.80359E-05 2.86426E-06-7.05859E+01-3.82543E-06 4.02787E+00
 -1        20-3.03487E+01-2.31074E-05 6.89210E-07-6.91447E+01 3.95328E-07 4.54062E+00
 -1        21 1.68255E+01-2.29772E+00 5.77991E-01 4.81999E+00-1.97375E-01-8.04667E-01
 -1        22 4.77814E+00-2.92912E+00 5.77170E-02 2.48949E+00 2.20401E-01 3.81299E-01
 -1        23 3.87144E+00-4.55840E+00-9.17842E-01 2.29147E+00 1.84249E-01-7.86566E-01
 -1        24-3.15530E+00-2.66358E-01-2.29565E-01 9.84465E+00 2.76869E-01-1.98196E-01
 -1        25 1.74196E+00-1.55147E+00 2.68587E-01 5.72168E+00 7.89837E-01 2.94062E-01
 -1        26-3.36074E+00 1.59064E+00 2.45474E-03 6.03060E+00-9.61510E-01 6.46536E-01
 -1        27-1.23306E+01 1.37828E+00-5.19882E-01 4.67761E+00-1.97782E-01-6.50722E-01
 -1        28-4.02992E+00 2.55232E+00 7.79030E-01 2.53294E+00-1.05249E+00 3.89660E-01
 -1        29-3.86299E+00 2.93110E+00-5.57678E-01 1.93687E+00 9.97962E-01-1.19001E+00
 -1        30 2.20887E+00 1.07837E+00 1.44778E-01 8.11670E+00-6.41573E-01-8.02718E-01
 -1        31 4.22019E+00-4.15583E+00-8.76679E-02 5.07110E+00 4.25542E-01-1.28657E-01
 -1        32-2.54099E+00 4.09289E+00-1.90111E-02 5.49558E+00-1.18556E+00-6.39717E-01
 -1        33 1.21501E+02 2.41244E+00-1.93626E-01-1.77784E+00-6.78205E-01 5.68462E-01
 -1        34 6.51537E+01 4.94689E+00-2.86167E+00-1.42218E+01 1.98840E-01 2.74229E+00
 -1        35 7.19548E+01-2.71247E-01-3.78597E-01 2.66009E+00-1.74512E-01-2.05619E+00
 -1        36 1.45603E+02 6.15051E-01-2.63930E-01 4.58776E-01 7.61818E-01-4.59887E-01
 -1        37 7.40499E+01 4.54077E+00-2.44226E+00-1.42332E+01-8.14389E-01 1.23204E+00
 -1        38 8.30809E+01-8.44283E-01-9.49040E-01 4.05336E+00-9.89696E-01 1.14102E+00
 -1        39-1.47683E+02-1.14724E+00 3.51199E-01 2.52152E+00-8.90246E-01-5.91352E-01
 -1        40-7.67096E+01-3.16425E+00 1.94720E+00-1.47018E+01 2.38424E+00 3.86744E+00
 -1        41-8.14543E+01-1.32122E+00 1.03965E+00 3.43455E+00-4.42661E-01 2.05705E+00
 -1        42-1.21202E+02-3.64491E+00 2.11222E-01 2.21256E+00 1.11800E+00-3.57012E-01
 -1        43-6.64818E+01-3.90150E+00 2.58430E+00-1.23405E+01-1.64563E+00 8.46217E-01
 -1        44-6.96501E+01-6.70535E-01 8.19966E-02 3.64826E+00 1.71227E+00-3.27811E+00
 -1        45-1.52675E+00 1.16342E+00-1.44734E-01-8.01148E+01 6.23451E-01 6.67968E+00
 -1        46 4.16572E+01-5.90938E+00-4.10107E-01-7.03218E+01-2.68682E-01 4.32090E+00
 -1        47 3.46544E+01-8.58715E+00 5.34923E-01-7.45664E+01-2.34281E+00 3.25142E+00
 -1        48-3.55332E+01 5.14104E+00-2.99926E-01-7.14243E+01 8.32843E-01 5.93993E+00
 -1        49-3.71682E+01 1.34026E+00 4.41199E-01-6.73456E+01 8.90754E-01 4.03362E+00
 -1        50 1.44267E+01-1.63211E+00 2.35448E-01-6.16478E+01-6.98361E-01 7.47952E+00
 -1        51 2.11615E+00 2.35022E-05 5.48092E-06-6.42757E+01-3.52095E-06 5.23374E+00
 -1        52 4.73952E+00 3.57158E-05-2.98851E-01-7.07091E+01 2.44670E+00 5.18318E+00
 -1        53 3.05146E+01-3.70023E+00 1.48315E-01-7.39726E+01-1.77597E+00 4.06388E+00
 -1        54 1.50934E+00-4.85948E+00-1.63574E-01-6.66938E+01-2.51156E+00 9.54482E+00
 -1        55 1.34250E+01-1.56931E+00 4.79385E-01-6.24897E+01 5.44990E-01 1.73718E+00
 -1        56 1.79918E+01-1.83822E+00 9.21710E-02-7.87059E+01 8.73026E-01 4.74355E+00
 -1        57 2.02520E+01-3.16117E+00 6.69497E-01-7.68929E+01-1.24583E+00 5.25771E+00
 -1        58-2.68293E+00 3.21430E+00-2.79785E-06-7.75199E+01-1.00384E-01 5.54704E+00
 -1        59-1.74866E+01-2.73880E-05-9.78170E-07-7.13976E+01 8.03447E-07 4.62875E+00
 -1        60-1.52497E+01 1.58945E+00-2.02946E-01-6.05180E+01 6.93280E-01 7.08333E+00
 -1        61-3.25268E+01 1.31604E+00-4.83450E-02-7.10012E+01 6.33866E-01 2.71598E+00
 -1        62 2.34183E+01-1.54480E+00-1.51334E-01-7.53639E+01 8.48074E-01 4.09318E+00
 -1        63 2.00919E+00-1.29519E-05 2.66292E-06-7.65681E+01-5.44898E-06 5.35101E+00
 -1        64-2.67352E+01 4.04307E+00-7.75798E-01-6.31389E+01 1.63364E+00 9.32875E+00
 -1        65-1.73129E+01 2.36029E+00-5.31462E-01-5.97768E+01-9.14436E-01 1.82403E+00
 -1        66-1.72309E+01-2.62518E-05 3.18666E-06-7.55073E+01-6.16468E-06 5.49137E+00
 -1        67-2.41791E+01-2.68383E-05 3.28887E-01-7.13415E+01-2.10681E+00 2.69416E+00
 -1        68-1.50600E+01 1.23249E+00-2.39154E-01-7.32368E+01 4.96682E-01 4.44297E+00
 -1        69-7.99083E+00-1.64940E-05-6.38388E-06-6.40344E+01 7.06288E-06 5.85261E+00
 -1        70 6.24053E+00-3.05284E-01 2.16151E-02 1.10661E+01-9.43478E-01-1.76904E-01
 -1        71-3.77808E+00-2.53251E+00 2.11790E-01 5.40685E+00-6.32928E-01-1.06742E+00
 -1        72-4.81654E+00 2.83620E+00-6.70661E-01 8.45341E+00-2.31911E-01 1.30879E+00
 -1        73 3.93753E+00 5.54190E-01-5.87167E-01 4.78447E+00 4.78385E-01-2.19706E+00
 -1        74-4.66902E-01-3.93202E+00 5.24690E-01 6.92787E+00-8.68342E-01-1.16462E+00
 -1        75-1.65787E+00 4.51983E+00-3.95931E-02 9.34838E+00-9.88145E-01 3.28919E-01
 -1        76-2.86684E+00 2.82182E+00-9.48455E-02 5.10174E+00 6.86527E-01 1.00987E+00
 -1        77-1.35505E+00-1.78080E+00-1.11822E+00 5.28901E+00-4.74678E-01 1.81871E-01
 -1        78 1.18538E-01-2.63822E+00 1.05156E+00 8.61824E+00-2.88776E+00-9.78235E-01
 -1        79 2.25103E+00 2.63098E-01 2.66530E-01 8.29392E+00-3.12563E+00-5.08207E-01
 -1        80 8.37022E+00-3.14417E+00 1.13743E-01 8.41004E+00 4.83214E-02-9.03096E-01
 -1        81 4.83103E+00-3.10157E+00-2.91354E-01 6.57877E+00-9.95340E-02-1.06626E+00
 -1        82-2.36924E+00 4.95729E+00 7.35096E-01 3.56225E+00-1.50814E+00-8.29998E-01
 -1        83-4.09687E-01 2.25037E-01-8.34499E-01 4.18581E+00 8.43108E-01-1.71050E+00
 -1        84 7.93542E+00-3.03562E+00-1.13809E+00 2.56765E+00 2.41646E+00-3.73021E-03
 -1        85-8.62550E-01 3.71681E+00-6.32115E-01 8.30261E+00 6.33051E-01 6.14523E-01
 -1        86-3.41462E+00 5.88911E-01 4.59343E-01 8.58966E+00-1.31363E+00-5.31655E-01
 -1        87 2.57686E+00-5.07789E+00 2.97762E-01 4.51918E+00-9.13199E-01-2.07285E-01
 -1        88 7.34533E+00-5.17413E+00 4.91066E-01 4.97664E+00 1.01197E+00-6.15861E-01
 -1        89 3.99352E-02 2.75444E+00-6.20713E-01 1.41232E+01 1.83663E+00-6.24100E-01
 -1        90 4.57454E+00 2.10362E-01-2.83029E-01 1.07502E+01 8.87672E-01 2.08291E+00
 -1        91-3.36667E+00 5.02594E-01 5.24208E-01 5.64685E+00-7.29409E-01-1.24283E+00
 -1        92 2.61061E+00-5.93803E+00-9.36955E-01 3.76157E+00 1.60821E+00 9.58659E-04
 -1        93-7.98916E+00 3.03278E+00 1.01459E+00 4.83627E+00-3.71902E+00 5.51302E-02
 -1        94 7.50303E-03-4.35926E+00 6.21665E-01 4.79864E+00-2.42398E+00-2.04062E+00
 -1        95 1.21914E+02 3.02715E+00-8.70164E-01-3.54869E+00 9.65868E-03 1.03649E+00
 -1        96 7.64883E+01 2.98306E+00-5.93884E-01 6.18094E+00 4.48781E-01-7.93142E-01
 -1        97 7.60590E+01 3.48378E+00-7.68937E-01 5.30669E+00-8.55480E-02-4.19830E-01
 -1        98 8.75406E+01 2.54843E+00-6.40979E-01-1.79605E+01 2.64612E-01 6.07470E+00
 -1        99 8.52564E+01-3.61033E-01-4.18765E-01-2.55758E+01 1.48027E+00 4.59870E+00
 -1       100 3.42342E+01-1.62883E+00-6.76493E-01-3.05563E+01 3.51252E-01 8.51348E-02
 -1       101 3.79538E+01-6.57588E+00-7.95236E-01-2.87329E+01-7.70284E-01 1.09515E+01
 -1       102 6.92981E+01-6.01438E+00-1.37782E+00-2.82314E+01 8.86783E-01 4.53184E+00
 -1       103 1.03705E+02 6.95112E+00-9.47438E-01-8.06728E+00 3.82157E+00 6.12287E+00
 -1       104 1.05658E+02 2.04706E+00-3.90599E-01-1.78025E+01-1.62817E+00 1.37410E+00
 -1       105 3.47661E+01-4.04746E+00-1.10866E+00-4.50363E+01 9.34397E-01 2.74101E+00
 -1       106 3.60816E+01-1.12732E+00-6.75567E-01-3.15650E+01-2.27715E-01 4.73243E+00
 -1       107 1.15824E+02-1.06509E+00-1.98305E-01 3.45877E+00-7.81947E-01-2.63132E-01
 -1       108 1.20757E+02-3.21156E+00-2.16886E-01 1.40348E+00 1.37609E+00-2.25217E-01
 -1       109 1.31984E+02 4.36953E+00 5.66337E-01-3.49796E+00-5.39025E-01 5.68004E-01
 -1       110 8.01274E+01 2.89858E+00-4.17033E-01 7.29958E+00-3.26491E-01-1.26855E+00
 -1       111 4.50036E+01 1.32117E+00-1.63249E-01 5.31707E+00 6.42127E-02-1.55720E+00
 -1       112 4.19037E+01 2.64210E+00-1.15824E+00 3.67160E+00 7.88723E-02 4.62363E-01
 -1       113 1.12755E+02 8.13657E-01-1.26288E+00 4.02841E+00 2.81659E-01-8.10990E-01
 -1       114 4.42119E+01 1.52931E+00 2.87138E-01 3.56270E+00-5.44908E-01-8.76273E-01
 -1       115 1.29610E+02 1.49542E+00-3.30390E-01-5.94969E+00-1.54049E-01 7.94278E-01
 -1       116 1.06312E+02-3.37983E-01-1.33603E-01 1.69290E+00-1.11872E-01 9.48350E-01
 -1       117 4.04581E+01 2.19084E+00-8.55393E-01 3.99348E+00-1.28341E-01-4.02885E-02
 -1       118 1.08574E+02 4.06910E+00-5.63433E-01-1.30637E+01-8.20810E-01 1.87716E+00
 -1       119 1.19426E+02 1.38111E+00-3.46437E-01-1.12853E+01 1.73408E+00 5.74776E-01
 -1       120-1.22836E+02-4.93325E+00 5.03803E-01-3.05056E+00 4.59503E-01 2.20815E+00
 -1       121-7.71390E+01-3.63153E+00-3.26603E-01 8.99703E+00-1.20190E-01-2.13367E-02
 -1       122-8.53764E+01 4.36567E+00 2.51692E+00-2.32895E+01-7.21672E-01 3.00332E+00
 -1       123-7.50458E+01-4.44064E+00 3.24253E-01 8.28444E+00-3.04925E-01-6.79572E-01
 -1       124-8.06514E+01-7.67901E-02 2.34806E+00-1.30389E+01 1.52752E-01 4.07788E+00
 -1       125-1.01295E+02-6.05615E+00 2.06579E-01 6.99323E+00 3.99104E-02 6.58195E-01
 -1       126-9.91430E+01-3.47936E+00 9.89385E-01 3.40226E+00-1.80664E+00-1.44299E+00
 -1       127-1.33308E+02-3.78261E+00 6.53038E-01 4.02497E+00 5.51467E-01 1.78614E+00
 -1       128-4.05884E+01-1.21398E+00 4.08628E-01 4.43143E+00-9.27491E-02-8.31846E-01
 -1       129-1.16586E+02 1.15366E+00 1.15043E+00-4.84499E+00 1.42026E+00 4.37208E-01
 -1       130-1.24995E+02-1.31632E+00 1.71475E+00-1.09214E+01-1.21893E+00 4.98471E+00
 -1       131-2.69393E+01-2.92093E-01 1.86964E+00-2.64184E+01-8.94445E-01-5.73126E-01
 -1       132-1.13187E+02-3.18179E+00-7.70627E-01 5.43510E+00-3.68972E-01-1.40340E+00
 -1       133-1.33146E+02-5.70878E+00-7.62683E-01 9.82166E-02 2.17604E-01 5.57973E-01
 -1       134-9.96093E+01-5.30251E+00-1.66731E-01 2.94374E+00 1.37300E+00 3.33520E+00
 -1       135-4.29469E+01-1.80182E+00 4.14754E-01 4.51629E+00 7.57557E-02 5.57777E-01
 -1       136-4.37759E+01-3.08333E-01 5.55101E-02 5.99969E+00-4.14911E-01 2.40900E-02
 -1       137-7.38273E+01 3.61089E+00 7.81756E-01 5.70883E-01-1.57231E-01-4.05587E-02
 -1       138-3.80307E+01 1.14835E-01 1.09514E+00-4.21920E+01-2.40420E+00 5.27946E-03
 -1       139-7.37931E+01-4.25307E+00-9.74524E-01-2.22173E+01 3.19786E-01 8.21721E+00
 -1       140-1.24318E+02 2.01301E+00 8.00792E-01-1.34543E+01 1.14485E+00 3.58095E+00
 -1       141-3.27823E+01 4.39938E-01 1.97731E+00-2.95042E+01 6.65079E-01 4.58032E+00
 -1       142-1.33789E+02 5.75586E+00 2.45199E+00-3.25041E+00-2.89202E+00-1.87591E+00
 -1       143-4.24277E+01 9.26440E-01-3.91639E-01 5.15630E+00-3.77154E-01-6.71601E-01
 -1       144-3.15252E+01 1.42847E+00-2.26705E-01-2.67743E+01 1.96853E+00 1.21211E+01
 -1       145-6.28564E+00-4.73839E-01-1.67454E-01-3.18399E+01 6.65801E-01 6.01282E-01
 -1       146-4.72529E+01 1.37472E+00-4.84430E-01-5.41528E+01-7.92961E-01 1.44197E+00
 -1       147-3.46944E+01-3.56162E+00 4.62317E-01 5.96851E+00 8.01924E-02-6.58090E-01
 -1       148 2.33005E+01 5.98103E+00-3.64800E-01 7.21932E+00 9.45679E-01-9.97394E-01
 -1       149 3.82695E+01-2.41282E+00-3.40771E-02-5.18009E+01-6.75440E-01 2.90088E+00
 -1       150 2.24084E+01-3.75142E+00 8.28759E-01-6.54767E+01-5.82107E-02 1.79382E+00
 -1       151 2.38127E+01-5.23922E-01 4.28133E-01-4.98825E+01 1.58634E+00-2.06407E+00
 -1       152-5.64984E+00 9.22805E-01 6.99576E-01-5.96865E+01-1.39370E-01 5.52296E-01
 -1       153-2.85404E+01 4.77765E+00 2.15753E-01-6.49142E+01-1.41966E-01 3.34499E+00
 -1       154-2.78504E+01-3.58862E+00-2.97564E-01-4.27399E+01 1.11936E+00 2.12030E+00
 -1       155 1.66680E+01 3.63385E+00-7.84327E-01-4.65560E+01 1.04496E+00 8.88500E-01
 -1       156-2.82583E+01-6.11953E-01-1.07667E+00-5.07585E+01 1.99245E+00 6.03168E+00
 -1       157 8.10041E+01 4.38971E-01-1.79014E-01-2.39142E+01-3.04470E+00 3.93980E+00
 -1       158-9.82916E+01-7.79280E-01 1.26997E-01-2.47299E+01-7.22946E-01-2.85550E-01
 -1       159-6.52191E+01-5.35801E+00-4.38179E-01-1.46639E+01 1.91675E+00 8.74290E-01
 -1       160-8.64830E+01-2.30289E+00-7.17237E-02 1.72599E+00-1.20142E+00 1.45217E+00
 -1       161-2.19742E+01-5.56937E+00 6.77437E-01-7.08638E+00-1.58746E+00 9.09388E-01
 -1       162-2.35172E+01-9.41429E-01 1.02704E-01 4.46741E+00 1.56982E+00 1.34686E-01
 -1       163-1.53202E+01-1.33762E+00 1.71523E-01 7.42564E+00 3.40998E-01-1.54435E+00
 -1       164-5.27192E+00-4.67074E-01-7.59268E-01-4.37952E-01 1.10815E+00-7.94742E-01
 -1       165 6.71465E+00 1.38876E+00-5.63727E-01 8.12403E+00 8.96141E-01 4.81742E-01
 -1       166 5.34900E+00 6.75577E+00-2.49418E-01-8.44432E+00-7.96236E-01-6.90509E-01
 -1       167 6.89352E+01 4.10249E+00 4.17579E-02 2.82747E+00-5.98463E-01-1.04401E+00
 -1       168 4.62487E+01 5.29397E+00-1.16107E-01-1.76440E+01 3.29356E-01-1.35346E+00
 -1       169 1.88905E+01 1.28770E+00-3.43880E-01 5.68243E+00 1.44008E+00-8.53743E-01
 -1       170 6.84572E+00 3.49495E-01 3.35346E-01-2.58275E+01-3.96277E-01-1.18380E-01
 -1       171-2.07289E+01-6.14049E+00 8.76496E-02 3.93599E+00-2.09614E-01-1.09726E+00
 -1       172 2.99603E+01 6.01020E+00 6.11729E-01 6.54682E+00 9.42796E-02-1.78468E-01
 -1       173-3.87857E+01 1.52392E+00-5.59026E-02-5.60190E+01-7.69323E-02 3.25474E+00
 -1       174 5.07573E+01-3.00380E+00-6.17383E-01-5.07117E+01 6.83272E-01-1.95507E+00
 -1       175-7.83562E+01-1.64112E+00 3.74981E-01-2.64705E+01 1.75801E+00 2.59241E+00
 -1       176-2.48099E+01 2.61266E-01-4.98002E-01-5.10792E+01-2.45410E+00-1.53883E+00
 -1       177-1.27908E+01-3.21981E+00 3.38294E-01-4.47142E+01-2.23137E-01 9.04638E-01
 -1       178-4.52516E+01-4.89150E+00-3.33739E-02-1.52640E+01-2.54622E-01 4.79940E-01
 -1       179-6.86093E+01-4.27336E+00-3.14392E-02 1.54130E+00 2.13896E+00-2.21952E+00
 -1       180-1.68202E+01-1.03998E+00 1.46196E-01 3.63773E+00-5.51189E-01-9.84781E-01
 -1       181-7.64016E+00-9.06297E+00 2.55449E-01-3.93801E+00-3.36038E-01-2.60995E-01
 -1       182 8.52029E+01 3.94518E+00 5.55227E-01 2.83083E+00-6.89979E-01 8.63811E-01
 -1       183 1.69564E+01 7.12715E+00 4.92834E-01-7.53418E+00 4.28265E-02 7.36233E-02
 -1       184 6.79094E+01 3.87927E+00 8.92965E-01-1.68690E+01-1.82111E+00 1.49443E+00
 -1       185 2.21457E+01 2.65683E+00 1.43651E-01 4.86273E+00-1.44888E+00 6.21077E-01
 -1       186 1.35579E+01 1.27831E+00 4.54832E-01 6.17008E+00 1.58305E-01-1.93304E+00
 -1       187 5.30326E+00-6.48198E-02-6.83559E-01 5.81953E-02 2.35158E+00-1.14252E-02
 -1       188-2.13599E+01 4.06068E+00-1.70197E-02-6.60664E+01-4.48590E-01 1.66877E+00
 -1       189 5.70170E+00 9.04566E-01 3.11865E-01-5.92888E+01-1.10238E+00 2.68341E+00
 -1       190 9.88125E+01-6.61195E-01-8.43994E-01-2.31560E+01 2.74283E+00-2.28078E+00
 -1       191 3.32485E+01 2.98495E+00-1.13303E-01-4.56307E+01-1.78888E+00-1.04558E+00
 -1       192 2.71328E+01-5.38922E-01 4.35701E-01-4.98932E+01-1.53828E+00 6.15290E+00
 -1       193 2.76781E+01-4.78973E+00-5.02051E-01-6.40653E+01 5.22878E-01 1.79885E+00
 -1       194-5.57225E+00-1.06744E+00-3.25626E-01 6.26102E+00 2.74627E-01 2.00599E-01
 -1       195-2.14380E+01-3.22415E+00 2.12443E-01-4.76562E+01 6.15621E-02 3.05271E+00
 -1       196 1.74007E+01 5.52278E+00-4.24505E-01-7.58205E+00 1.03675E-01 2.99288E-01
 -1       197 5.91381E+01-5.89099E+00-5.17532E-02-4.36627E+01-1.65048E+00 5.07022E+00
 -1       198 7.21659E+01-3.89292E+00-9.66203E-01-3.85820E+01 1.39501E+00-3.22289E-01
 -1       199 5.23137E+01 8.73238E+00-3.64905E-01-1.93179E+01 1.37894E+00 3.60628E+00
 -1       200 6.69945E+01 6.67373E+00-6.73864E-01-7.19597E+00-8.41884E-01 1.80166E+00
 -1       201 3.28953E+01-1.40787E+00-7.17229E-02-4.71527E+01-4.61715E-01-2.22904E+00
 -1       202-4.42850E+01-3.32054E+00-7.28557E-02-6.51946E+00 1.60738E-01 9.71590E-02
 -1       203-5.49260E+01-3.66362E+00-1.59605E-01 7.85882E+00-6.69623E-02-4.79764E-01
 -1       204-2.74765E+01-1.63427E+00-6.24679E-01 3.65663E-01 9.71527E-01-2.14092E-02
 -1       205-9.46430E+00-3.74108E+00 4.79495E-01 7.29116E-01-8.46353E-01-3.70088E-01
 -1       206 5.49973E+00 1.16574E+00-2.21920E-01-2.01418E+01 3.21662E-01 3.81457E-01
 -1       207-2.49197E+01-2.87677E+00 1.76705E-01 8.64782E+00-1.54055E+00-1.51299E+00
 -1       208-3.16382E+01-1.38981E+00-2.70881E-01 6.66061E+00-5.08399E-01-1.33263E+00
 -1       209-6.24401E+00-1.63106E+00-5.21284E-01 3.78659E-01 1.46974E+00-1.10373E-01
 -1       210-1.46617E+01 2.25817E-01-1.67099E-01 6.22255E+00 3.35478E-01 5.47903E-01
 -1       211 1.48226E+01-8.29061E-01 6.86629E-01 8.85087E+00-7.63582E-01-1.39186E+00
 -1       212 1.59856E+01-1.50097E-01 7.43749E-01 6.82917E+00 1.03018E-01-1.35563E+00
 -1       213 4.68058E+01 3.38877E+00 3.33794E-01-3.35199E+01-4.25362E-01 3.01692E+00
 -1       214 6.84671E+01-7.89434E-01-8.97980E-01-3.63556E+01 1.90713E+00-9.68323E-01
 -1       215 3.88156E+01-6.57778E+00 7.87138E-02-6.21906E+01-2.07849E+00 5.76765E+00
 -1       216 1.87784E+01-2.05784E+00 1.51002E-01-5.86754E+01-1.37177E+00 2.99759E+00
 -1       217-2.62013E+01-2.84596E-01 1.88432E-01 1.00712E+01 8.46977E-01 3.79784E-01
 -1       218-3.33333E+01-1.42317E+00-4.69396E-01 6.79706E+00 2.72456E-01 5.87771E-01
 -1       219-4.21803E+01-2.42900E+00 5.12920E-01 4.63539E+00-1.93468E+00-2.37195E-01
 -1       220-3.64662E+01-3.75841E+00-6.83415E-01-6.99687E+00 2.69168E+00 2.15552E+00
 -1       221 9.35187E+00 2.24107E+00-4.86193E-01 4.63174E+00 1.16774E-01-9.13729E-01
 -1       222 3.87977E+00-2.22672E+00 4.45776E-01-3.47384E-01 3.37011E-01-8.64787E-01
 -1       223 1.93868E+01 8.53396E+00-9.38686E-02 2.15922E-01 6.04533E-01 5.35621E-01
 -1       224 8.85258E+00 8.40445E+00 2.91734E-01-1.44120E+01-2.95867E-01 6.75706E-01
 -1       225 5.76707E+01 3.60307E+00 5.38185E-01-1.68952E+01-6.82497E-02 1.35102E+00
 -1       226 3.17128E+01 4.19835E-01 6.09304E-01-4.41833E+01 9.40655E-01 5.22396E+00
 -1       227 3.80165E+01 2.56383E+00 4.78740E-01-3.13617E+01-1.99740E+00 1.42136E+00
 -1       228-6.51102E+00-8.10755E-01 4.55675E-01-3.85560E+01-8.80090E-01 1.44962E+00
 -1       229-3.81626E+00 1.76519E+00-4.29657E-02-5.82126E+01 2.86669E-01 3.43421E+00
 -1       230 1.07293E+01 2.02578E+00-3.33316E-01-4.95470E+01 1.06157E+00 5.43261E+00
 -1       231-4.99648E+01-7.67100E+00 8.13537E-01-1.19344E+01-6.78788E-01 6.19336E-01
 -1       232-6.21496E+00-4.26027E+00 2.52598E-01-8.85959E+00-1.03806E+00 3.17466E+00
 -1       233-7.18517E+01-6.19463E+00 7.24389E-01-2.23831E+01 1.24518E+00 1.32510E+00
 -1       234 5.71121E+01-1.85699E+00-7.52146E-01-4.37029E+01 1.01921E+00 4.97898E+00
 -1       235-5.50290E+01-5.15413E+00-4.28674E-01-1.73925E+01-1.82997E-02 1.47319E+00
 -1       236-1.22561E+01-7.16639E+00-6.90782E-02-3.86615E+01 3.29670E-01 2.30133E+00
 -1       237-1.03189E+01-2.49136E-01-1.47383E-02-6.66505E+01-4.79856E-02 6.08213E+00
 -1       238-2.42632E+00 1.02138E+00-8.45337E-03-2.79111E+01 4.53312E-01 2.77023E+00
 -1       239 1.29858E+01 8.31271E-01 7.10931E-03 6.94045E+00 9.43404E-02-2.99443E-01
 -1       240 5.87461E+00 8.40722E-02-1.85677E-01 3.64556E+00-1.41387E-01 2.05555E-01
 -1       241 1.26406E+01-2.91666E-01 2.85036E-01 4.19424E+00-1.50231E+00-1.08647E+00
 -1       242 1.95695E+01 6.54392E+00-4.53242E-01 2.57988E+00 3.11293E-01-3.47266E-01
 -1       243 3.12690E+01 7.56267E-01-2.74380E-01 4.11695E+00-4.08442E-01-8.06417E-01
 -1       244 2.11265E+01 2.41131E+00 1.94070E-01 2.74840E+00-8.26310E-01-5.66104E-01
 -1       245 4.59899E+01 5.82104E+00-7.07087E-01 3.87217E+00-1.07123E-01 5.82788E-01
 -1       246 4.94540E+01 4.37746E+00-5.05151E-01 7.57003E+00 4.42300E-01-1.14924E+00
 -1       247 6.23451E+01 5.53611E+00-2.21023E-01-5.94806E+00 7.10099E-01 3.61614E-01
 -1       248-5.87715E+01 8.46484E-01 8.68685E-01-3.63369E+01 1.11356E+00 4.74411E+00
 -1       249-5.15232E+01-3.25883E+00 9.90669E-01-3.57975E+01-1.47711E+00 5.41937E-01
 -1       250-2.97796E+01-1.87119E+00 1.65572E-01-5.34714E+01 2.61583E-01 4.11357E+00
 -1       251-6.28921E+01-5.68359E+00 1.67168E-01-2.18176E+01-5.09323E-01 1.34065E+00
 -1       252-5.38784E+01 4.16751E+00 1.47617E+00-4.02708E+01 8.26052E-01 5.49445E+00
 -1       253-2.74726E+01 5.76110E-01-1.38804E+00-4.98308E+01 3.41478E-01 4.13318E+00
 -1       254-3.28345E+01 4.56266E+00-4.08620E-01-6.29475E+01 1.03003E+00 3.30946E+00
 -1       255-3.76315E+01 5.53784E+00-2.28207E-01-6.45649E+01-5.89574E-02 5.32907E+00
 -1       256-1.01243E+01 2.05552E+00-2.70570E-01-6.34983E+01 4.04805E-01 3.57026E+00
 -1       257-6.00091E+01 1.80834E+00 1.15507E+00-3.65327E+01 2.16110E+00 5.94694E+00
 -1       258 4.51281E+01 4.15715E+00-6.77587E-02 1.54194E+00-5.66598E-01-1.73984E+00
 -1       259 1.70779E+01-3.46339E+00-6.21486E-01-6.51549E+01-7.08165E-01 2.95397E+00
 -1       260-5.60195E+01 3.91272E+00 1.66377E+00-4.50052E+01-5.90741E-01 4.15699E+00
 -1       261-4.45935E+01 4.51490E+00 2.86506E-01-6.28913E+01-3.36285E-01 2.12000E+00
 -1       262-1.67985E+01 1.43621E-02-1.51955E-01 6.46365E+00 4.96601E-01-1.72041E+00
 -1       263 5.34729E+01 4.44784E+00-9.09479E-02 7.51589E+00 2.71038E-01 3.06321E-01
 -1       264 4.64721E+01-6.90123E+00-1.12985E+00-6.09073E+01 1.73667E+00 4.79404E-01
 -1       265 5.99421E+01 5.03484E-01-6.56731E-01-3.68031E+01-1.60930E+00 4.34032E+00
 -1       266 5.88074E+01-4.37755E+00-6.02563E-01-4.57772E+01 6.62419E-01 5.93861E+00
 -1       267-4.71003E+01-6.46543E+00 4.01107E-01 6.12916E+00-9.12315E-01-8.53296E-01
 -1       268-6.53782E+01 2.03847E+00 8.53278E-01-3.89633E+01-1.50922E+00 1.53989E+00
 -1       269 3.18398E+01 1.24435E+00-4.80935E-01 5.62165E+00 3.18811E-01-7.43041E-01
 -1       270-1.43788E+01 5.07344E-01-1.91927E-01 6.23415E+00 5.07486E-01-8.64944E-01
 -1       271-2.85172E+01 5.61141E+00-3.06413E-01-6.88012E+01-7.56243E-01 2.75787E+00
 -1       272-3.04072E+01-4.32134E+00-1.40838E-03-4.92168E+01-9.81536E-01 2.21904E+00
 -1       273 3.75378E+01 6.01369E+00-7.42126E-01-3.22044E+01 1.68258E+00 2.91259E+00
 -1       274 7.66799E+01 5.56484E+00 1.14520E-01 1.75902E+00 6.00302E-01 4.30954E-01
 -1       275 2.69073E+01 3.23192E+00-3.83784E-01 9.70828E+00-5.19071E-02-3.49614E-01
 -1       276 4.55809E+01-2.35090E+00-2.93265E-02-5.46442E+01 1.36432E+00 8.37977E+00
 -1       277-3.46425E+01-6.33036E+00 4.84772E-01-3.02933E+00 8.74375E-02-1.03784E+00
 -1       278-8.21703E+01-3.96291E+00-4.53438E-01-2.85130E+01-9.30695E-01 2.26716E+00
 -1       279 3.06993E+01-2.49211E+00-2.14815E-01-5.75311E+01-2.01176E-01 1.16568E+00
 -1       280-4.43747E+01 3.85260E+00 5.49293E-01-5.52275E+01-5.46704E-01 7.72575E+00
 -3
    1PSTEP                        19           1           1          
    1PGM                1.000000E+00                                  
    1PGK                1.539154E+12                                  
    1PHID                         -1                                  
    1PSUBC                         0                                  
    1PMODE                         7                                  
  100CL  107 1.97452E+05         280                     2    7MODAL      1
 -4  DISP        4    1
 -5  D1          1    2    1    0
 -5  D2          1    2    2    0
 -5  D3          1    2    3    0
 -5  ALL         1    2    0    0    1ALL
 -1         1 0.00000E+00 0.00000E+00 0.00000E+00
 -1         2 0.00000E+00 0.00000E+00 0.00000E+00
 -1         3 0.00000E+00 0.00000E+00 0.00000E+00
 -1         4 0.00000E+00 0.00000E+00 0.00000E+00
 -1         5-1.14963E+03-6.60733E+02-6.57549E+02
 -1         6 1.15177E+03 6.71054E+02-6.49274E+02
 -1         7 1.15212E+03-6.44899E+02 6.73185E+02
 -1         8-1.14468E+03 6.43335E+02 6.57602E+02
 -1         9 0.00000E+00 0.00000E+00 0.00000E+00
 -1        10 0.00000E+00 0.00000E+00 0.00000E+00
 -1        11 0.00000E+00 0.00000E+00 0.00000E+00
 -1        12 0.00000E+00 0.00000E+00 0.00000E+00
 -1        13 0.00000E+00 0.00000E+00 0.00000E+00
 -1        14 0.00000E+00 0.00000E+00 0.00000E+00
 -1        15 0.00000E+00 0.00000E+00 0.00000E+00
 -1        16 0.00000E+00 0.00000E+00 0.00000E+00
 -1        17 0.00000E+00 0.00000E+00 0.00000E+00
 -1        18 0.00000E+00 0.00000E+00 0.00000E+00
 -1        19 0.00000E+00 0.00000E+00 0.00000E+00
 -1        20 0.00000E+00 0.00000E+00 0.00000E+00
 -1        21-2.34931E+00-1.72389E+01-5.02816E+02
 -1        22-6.39497E+02-4.91297E+02-5.55207E+02
 -1        23 6.21850E+02 4.70485E+02-5.51716E+02
 -1        24 3.61580E+00-5.03412E+02-1.27802E+01
 -1        25-6.36073E+02-5.57908E+02-4.86944E+02
 -1        26 6.26216E+02-5.48747E+02 4.73754E+02
 -1        27-1.35560E+01 1.05209E+00 4.81675E+02
 -1        28 6.16769E+02-4.74898E+02 5.63513E+02
 -1        29-6.33744E+02 4.73301E+02 5.56036E+02
 -1        30-2.98059E+00 4.82115E+02-2.97879E+00
 -1        31 6.19501E+02 5.61136E+02-4.79922E+02
 -1        32-6.24480E+02 5.43381E+02 4.73188E+02
 -1        33-6.25054E+02-2.29092E+01-2.90486E+01
 -1        34-2.42006E+02 4.42879E+01 4.13397E+01
 -1        35-9.56414E+02-2.61563E+02-2.62452E+02
 -1        36 6.08921E+02 1.10487E+01-2.84462E+01
 -1        37 2.40219E+02-4.81162E+01 3.43404E+01
 -1        38 9.63433E+02 2.59863E+02-2.47686E+02
 -1        39 6.07873E+02-3.02698E+01 9.55800E+00
 -1        40 2.40228E+02 3.42706E+01-4.97463E+01
 -1        41 9.63254E+02-2.46541E+02 2.59203E+02
 -1        42-6.26681E+02 3.38291E+01 1.27285E+01
 -1        43-2.42384E+02-4.17473E+01-4.90710E+01
 -1        44-9.59535E+02 2.59278E+02 2.54948E+02
 -1        45 0.00000E+00 0.00000E+00 0.00000E+00
 -1        46 0.00000E+00 0.00000E+00 0.00000E+00
 -1        47 0.00000E+00 0.00000E+00 0.00000E+00
 -1        48 0.00000E+00 0.00000E+00 0.00000E+00
 -1        49 0.00000E+00 0.00000E+00 0.00000E+00
 -1        50 0.00000E+00 0.00000E+00 0.00000E+00
 -1        51 0.00000E+00 0.00000E+00 0.00000E+00
 -1        52 0.00000E+00 0.00000E+00 0.00000E+00
 -1        53 0.00000E+00 0.00000E+00 0.00000E+00
 -1        54 0.00000E+00 0.00000E+00 0.00000E+00
 -1        55 0.00000E+00 0.00000E+00 0.00000E+00
 -1        56 0.00000E+00 0.00000E+00 0.00000E+00
 -1        57 0.00000E+00 0.00000E+00 0.00000E+00
 -1        58 0.00000E+00 0.00000E+00 0.00000E+00
 -1        59 0.00000E+00 0.00000E+00 0.00000E+00
 -1        60 0.00000E+00 0.00000E+00 0.00000E+00
 -1        61 0.00000E+00 0.00000E+00 0.00000E+00
 -1        62 0.00000E+00 0.00000E+00 0.00000E+00
 -1        63 0.00000E+00 0.00000E+00 0.00000E+00
 -1        64 0.00000E+00 0.00000E+00 0.00000E+00
 -1        65 0.00000E+00 0.00000E+00 0.00000E+00
 -1        66 0.00000E+00 0.00000E+00 0.00000E+00
 -1        67 0.00000E+00 0.00000E+00 0.00000E+00
 -1        68 0.00000E+00 0.00000E+00 0.00000E+00
 -1        69 0.00000E+00 0.00000E+00 0.00000E+00
 -1        70 1.77623E+00 2.50912E+01 3.36505E+01
 -1        71 3.47348E+02 4.66062E+02-4.74355E+02
 -1        72-3.64179E+02 4.91226E+02 4.62547E+02
 -1        73 3.48672E+02-4.70822E+02 4.69823E+02
 -1        74-3.33648E+02-4.99304E+02-4.95850E+02
 -1        75-2.53030E+02 5.63640E+02 2.61894E+02
 -1        76-7.11975E+02 6.02915E+02 6.02269E+02
 -1        77-2.71972E+02 2.72280E+02 5.64821E+02
 -1        78-3.99790E-01 4.79849E+02 6.74593E+00
 -1        79-1.18386E+02 2.92560E+02 2.63401E+02
 -1        80-9.83903E+00 9.37590E+00 4.82538E+02
 -1        81 2.60008E+02-5.70828E+02 2.61264E+02
 -1        82 7.05224E+02-6.01090E+02 6.11528E+02
 -1        83 2.49154E+02-2.66591E+02 5.68505E+02
 -1        84 1.11688E+02-2.57643E+02 2.71808E+02
 -1        85 8.78642E+00-4.63134E+02 4.16973E+00
 -1        86-2.43633E+02-5.76620E+02-2.82786E+02
 -1        87-7.10139E+02-6.17363E+02-6.13698E+02
 -1        88-2.46727E+02-2.87234E+02-5.74624E+02
 -1        89-7.52782E+01-2.72424E+02-2.68356E+02
 -1        90 6.10341E+00-7.73227E-01-4.61634E+02
 -1        91 2.53178E+02 5.65583E+02-2.71167E+02
 -1        92 7.04279E+02 6.08547E+02-6.05625E+02
 -1        93 1.10404E+02 2.66068E+02-2.56750E+02
 -1        94 2.55914E+02 2.57354E+02-5.72477E+02
 -1        95-5.65441E+00-7.94741E-01 9.11752E+00
 -1        96 5.56821E+02 2.20032E+02-1.65606E+02
 -1        97-5.52133E+02-2.13996E+02-1.74337E+02
 -1        98-1.51289E+02 3.38870E+01 5.19378E+01
 -1        99 1.61078E+02-2.87812E+01 4.90698E+01
 -1       100-9.32335E+01 3.07926E+01 3.19905E+01
 -1       101-3.53162E+01 1.19895E+01 3.44407E+01
 -1       102 2.66580E-01 3.04995E+00 5.19083E+01
 -1       103-1.23582E+02 1.56468E+01 4.00060E+01
 -1       104 1.22132E+02-1.08560E+01 4.15162E+01
 -1       105 4.29159E+01-8.78633E+00 3.64161E+01
 -1       106 9.48512E+01-3.07746E+01 2.79663E+01
 -1       107 2.48528E+02 7.01219E+01-4.71860E+01
 -1       108 6.50729E+02 1.17412E+02-1.02239E+02
 -1       109 3.60008E+02 2.60065E+01-1.47341E+01
 -1       110-6.30581E+00 3.53653E+00-1.25594E+02
 -1       111 3.08587E+02 1.83239E+02-3.00318E+02
 -1       112 8.69738E+02 4.28993E+02-3.89446E+02
 -1       113-2.47664E+02-6.07993E+01-4.44093E+01
 -1       114-3.21347E+02-1.94069E+02-2.92052E+02
 -1       115-3.55486E+02-2.74964E+01-1.04889E+01
 -1       116-6.44816E+02-1.27377E+02-1.01955E+02
 -1       117-8.70840E+02-4.28018E+02-4.01611E+02
 -1       118-3.61408E+02 2.57154E+01 2.97323E+01
 -1       119 3.60171E+02-2.71056E+01 2.37728E+01
 -1       120-3.38775E-01 1.20615E+00-4.59646E+01
 -1       121 5.55470E+02-2.22482E+02 2.12175E+02
 -1       122 1.56012E+02 2.58845E+01-5.86717E+01
 -1       123-5.60394E+02 2.19321E+02 2.05371E+02
 -1       124-1.57980E+02-3.19092E+01-4.84821E+01
 -1       125-6.51171E+02 1.21194E+02 9.95081E+01
 -1       126-2.56457E+02 6.92126E+01 5.16780E+01
 -1       127-3.61610E+02 2.64522E+01-3.70257E+00
 -1       128-8.69105E+02 4.20168E+02 4.09226E+02
 -1       129-3.62562E+02-2.43543E+01-3.59446E+01
 -1       130-1.31152E+02-6.00418E+00-5.07098E+01
 -1       131-9.58419E+01-2.99332E+01-3.29395E+01
 -1       132 6.45351E+02-1.10983E+02 1.01028E+02
 -1       133 3.54225E+02-2.15975E+01-8.59241E+00
 -1       134 2.53285E+02-7.28152E+01 5.42266E+01
 -1       135 8.67105E+02-4.20319E+02 4.16655E+02
 -1       136 3.02671E+02-1.99587E+02 3.07200E+02
 -1       137-7.69797E+00-4.03422E+00 1.30576E+02
 -1       138 4.06851E+01 1.22359E+01-4.13002E+01
 -1       139-3.70854E+00 1.02045E+00-5.71919E+01
 -1       140 1.21135E+02 1.08233E+01-5.91301E+01
 -1       141 9.62491E+01 2.54222E+01-3.52218E+01
 -1       142 3.50975E+02 1.74931E+01-3.93536E+01
 -1       143-3.21945E+02 1.96792E+02 3.03887E+02
 -1       144-4.03579E+01-1.44659E+01-3.70713E+01
 -1       145-5.26525E+00 1.02533E+01-3.77277E+00
 -1       146 1.58361E+02 5.03492E+01-2.87446E+01
 -1       147 5.60114E+02-1.65189E+02 2.19969E+02
 -1       148-5.49650E+02-1.74453E+02-2.12069E+02
 -1       149-1.50375E+02 4.58898E+01 3.01890E+01
 -1       150-3.37823E+01 3.53405E+01 1.15471E+01
 -1       151-9.49924E+01 3.10347E+01 2.83524E+01
 -1       152-2.54372E-01 5.27692E+01 2.77200E+00
 -1       153 4.23914E+01 3.64140E+01-8.70858E+00
 -1       154 1.21254E+02 4.24725E+01-1.23364E+01
 -1       155-1.24658E+02 4.03081E+01 1.76433E+01
 -1       156 9.36169E+01 2.81592E+01-3.03687E+01
 -1       157-3.52159E+02 3.04977E+01 2.25705E+01
 -1       158 3.59339E+02 2.22424E+01-2.84746E+01
 -1       159 3.60704E+02-1.53263E+01 2.46910E+01
 -1       160 6.51599E+02-1.02422E+02 1.16294E+02
 -1       161 2.51272E+02-4.70202E+01 6.85369E+01
 -1       162 8.71853E+02-3.87132E+02 4.30023E+02
 -1       163 3.13928E+02-2.99866E+02 1.85525E+02
 -1       164-1.86988E+00-1.25819E+02 4.22892E+00
 -1       165-3.16928E+02-2.93020E+02-1.91345E+02
 -1       166-2.45336E+02-4.42281E+01-6.00460E+01
 -1       167-6.43995E+02-9.91279E+01-1.27831E+02
 -1       168-3.53707E+02-5.44861E+00-2.45074E+01
 -1       169-8.69262E+02-4.03013E+02-4.25801E+02
 -1       170 1.16415E+01-4.67497E+01-3.52088E+00
 -1       171-5.54446E+02 1.95064E+02 2.20829E+02
 -1       172 5.59519E+02 2.12516E+02-2.26366E+02
 -1       173-1.58001E+02-4.46095E+01-3.02411E+01
 -1       174 1.50510E+02-5.15989E+01 2.75470E+01
 -1       175-3.62527E+02-2.43380E+01-2.96755E+01
 -1       176-9.51729E+01-3.04008E+01-3.07496E+01
 -1       177-1.29228E+02-4.98047E+01-3.17630E+00
 -1       178-3.64816E+02 7.71783E+00 3.29284E+01
 -1       179-6.57809E+02 1.15340E+02 1.18234E+02
 -1       180-8.67213E+02 3.96550E+02 4.25999E+02
 -1       181-2.54219E+02 5.11448E+01 7.31997E+01
 -1       182 6.47277E+02 1.02570E+02-1.11452E+02
 -1       183 2.60946E+02 5.43963E+01-7.71801E+01
 -1       184 3.58516E+02-7.30134E+00-2.13128E+01
 -1       185 8.68509E+02 4.15977E+02-4.23819E+02
 -1       186 3.07556E+02 3.07427E+02-2.03934E+02
 -1       187-1.58451E+00 1.27526E+02-8.48187E+00
 -1       188-4.03272E+01-3.64482E+01-1.24430E+01
 -1       189-1.51841E+00-5.97495E+01 5.85857E+00
 -1       190 3.50183E+02-3.75108E+01 1.98698E+01
 -1       191 1.26273E+02-5.68447E+01 1.62547E+01
 -1       192 9.56398E+01-3.33382E+01 2.52641E+01
 -1       193 3.37613E+01-3.78366E+01 1.08006E+01
 -1       194-3.14211E+02 2.91082E+02 1.96352E+02
 -1       195-4.73820E+01-5.12763E+00-2.58642E+00
 -1       196-6.22346E+01-6.17919E+01-6.22704E+01
 -1       197-6.47743E+01 2.40763E+01 3.82821E+01
 -1       198-6.96937E+01 1.84447E+01 4.62201E+01
 -1       199-1.71660E+02 1.51344E+00 2.37577E+00
 -1       200-6.86438E+01-2.22071E+01-4.75280E+01
 -1       201-8.34775E+01 2.22862E+01 2.30980E+01
 -1       202 3.65625E+02-1.01620E+02 9.79833E+01
 -1       203 6.22723E+02-2.31959E+02 2.43930E+02
 -1       204 1.56984E+02-1.21528E+02 1.09249E+02
 -1       205 8.97828E+01-1.42032E+02 5.33804E+01
 -1       206-6.76724E+01-4.72897E+01-2.39635E+01
 -1       207 1.73485E+02-1.83671E+02 3.00407E+02
 -1       208 4.67481E+02-3.41319E+02 3.94879E+02
 -1       209-2.22317E+02 2.17534E+02 1.26324E+02
 -1       210-4.75166E+02 3.81116E+02 3.39715E+02
 -1       211 1.73966E+02 2.99782E+02-1.85173E+02
 -1       212 4.68824E+02 3.94253E+02-3.45065E+02
 -1       213 2.12942E+02-3.77740E+01 1.73302E+01
 -1       214 1.91152E+02-4.43948E+01 3.60899E+01
 -1       215-6.88388E+01 3.53322E+01 2.04488E+01
 -1       216-6.70539E+01 4.91639E+01 1.94030E+01
 -1       217-1.89455E+02 1.84907E+02 3.01343E+02
 -1       218-4.84874E+02 3.40009E+02 3.96484E+02
 -1       219-5.74698E+00-3.11979E+00 1.75021E+02
 -1       220 4.97049E+01-2.00443E+01 5.01918E+01
 -1       221-9.13644E+00-6.70155E+01-6.47504E+01
 -1       222-6.75658E+00 1.80328E+02-5.06264E+00
 -1       223 1.55948E+02 1.10982E+02-1.22713E+02
 -1       224 5.01381E+01 5.14058E+01-2.12209E+01
 -1       225 2.04331E+02 2.07938E+01-1.98771E+01
 -1       226 8.18730E+01-1.93888E+01 2.31191E+01
 -1       227 3.41559E+01 6.51538E+00 2.93105E+00
 -1       228-5.65428E+01-2.39243E+01 5.85770E+00
 -1       229 2.42218E+00 3.97338E+01 5.80897E+00
 -1       230-6.00519E+00 1.59685E+01 1.58301E+01
 -1       231-2.21931E+02 4.99640E+01 4.94009E+01
 -1       232-1.98024E+01 3.63650E+01 3.38535E+01
 -1       233-5.87200E+01 4.39587E+00-2.12343E+01
 -1       234 1.95868E+00 5.80467E+00 3.87693E+01
 -1       235 2.04702E+02-2.00214E+01 1.95829E+01
 -1       236 3.52131E+01 2.70503E+00 5.38583E+00
 -1       237-9.72387E+00-4.90709E+00-4.30184E+00
 -1       238-2.28908E+00-2.10117E+00-2.39936E+00
 -1       239-4.74896E+02-3.89030E+02-3.44236E+02
 -1       240-9.02710E+01-2.76074E+02-7.76084E+01
 -1       241-1.74311E+02-2.16064E+02-2.14790E+02
 -1       242-2.57108E+02-1.53426E+02-1.24146E+02
 -1       243-4.76447E+02-3.46792E+02-3.87327E+02
 -1       244-9.28043E+01-7.93698E+01-2.75786E+02
 -1       245-2.58251E+02-1.25359E+02-1.53244E+02
 -1       246-6.13627E+02-2.44933E+02-2.43947E+02
 -1       247-3.42138E+02-6.07635E+01-5.91698E+01
 -1       248-1.89142E+02-4.37420E+01-4.57458E+01
 -1       249-1.24859E+02-1.95408E+01-4.05373E+01
 -1       250-1.24740E+02-4.12048E+01-1.63306E+01
 -1       251-2.72020E+02-3.76564E+00-6.26040E+00
 -1       252-6.66179E+01-2.44695E+01-3.55441E+01
 -1       253-2.30287E+01-6.94187E+00-4.55914E+01
 -1       254-4.67592E+01-2.67139E+01-2.54628E+01
 -1       255-6.66320E+01-3.51798E+01-2.36492E+01
 -1       256-2.40822E+01-4.59963E+01-4.12331E+00
 -1       257 4.47519E+01 1.04835E+01-4.28908E+01
 -1       258 8.73496E+01 5.40852E+01-1.42237E+02
 -1       259 2.28385E+01-2.67146E+01 9.69758E+00
 -1       260 6.72152E+01 2.15396E+01-3.53365E+01
 -1       261 6.71341E+01 3.30783E+01-2.31786E+01
 -1       262 4.71836E+02-3.90386E+02 3.36229E+02
 -1       263 6.22548E+02 2.44038E+02-2.33694E+02
 -1       264 6.88732E+01-3.62039E+01 1.85817E+01
 -1       265-1.89222E+02 4.32109E+01 3.95624E+01
 -1       266 6.56582E+01-2.41931E+01 3.44306E+01
 -1       267-6.19323E+02 2.43427E+02 2.41109E+02
 -1       268 1.91197E+02 3.73369E+01-4.63899E+01
 -1       269 4.69162E+02 3.34795E+02-3.92618E+02
 -1       270 1.79478E+02-3.19717E+02 1.85694E+02
 -1       271 2.42558E+01 3.15206E+01-1.38116E+01
 -1       272 8.37652E+01 2.19331E+01-1.99575E+01
 -1       273-2.09561E+02 2.82290E+01 1.80256E+01
 -1       274 3.64157E+02 9.91493E+01-1.01881E+02
 -1       275 1.76957E+02 1.83503E+02-3.20307E+02
 -1       276 2.63996E+01-1.42302E+01 2.98487E+01
 -1       277-3.77960E+02 1.08467E+02 1.02259E+02
 -1       278 2.11810E+02 1.38793E+01-3.76215E+01
 -1       279 6.79207E+01-5.41860E+01 1.73660E+01
 -1       280 2.58606E+01 1.30725E+01-2.90920E+01
 -3
    1PSTEP                        20           1           1          
    1PGM                1.000000E+00                                  
    1PGK                1.539154E+12                                  
    1PHID                         -1                                  
    1PSUBC                         0                                  
    1PMODE                         7                                  
  100CL  107 1.97452E+05         280                     2    7MODAL      1
 -4  STRESS      6    1
 -5  SXX         1    4    1    1
 -5  SYY         1    4    2    2
 -5  SZZ         1    4    3    3
 -5  SXY         1    4    1    2
 -5  SYZ         1    4    2    3
 -5  SZX         1    4    3    1
 -1         1-1.69668E+07-5.45974E+05-4.95555E+05 2.89242E+06-1.56142E+05 2.89883E+06
 -1         2 1.70306E+07 5.25688E+05 5.09316E+05-3.02927E+06-5.19468E+04 2.51870E+06
 -1         3 1.68830E+07 5.62943E+05 5.46272E+05 2.57664E+06-7.39740E+04-3.07784E+06
 -1         4-1.68707E+07-5.76605E+05-5.19421E+05-2.97719E+06-1.41783E+05-3.13244E+06
 -1         5-6.29578E+06 4.46700E+06 4.46304E+06-5.62461E+05-2.29223E+06-5.52900E+05
 -1         6 5.06971E+06-4.55190E+06-4.14189E+06-1.60514E+05-1.57288E+06-9.26419E+04
 -1         7 5.13624E+06-4.11914E+06-4.48809E+06-8.97724E+04-1.56393E+06-9.60237E+04
 -1         8-5.33433E+06 4.50686E+06 4.00529E+06-1.62140E+05-1.72096E+06 4.42733E+05
 -1         9 5.50346E+05-1.00985E+05 1.43600E+05 9.44750E+04-4.66737E+04 3.84895E+06
 -1        10-8.46476E+06-2.35249E+00-1.07325E+00 2.06707E+06 1.89893E+00 3.23694E+06
 -1        11 9.15637E+06 3.86584E+00 3.70138E+00-2.01361E+06 3.83494E+00 3.18776E+06
 -1        12 5.87019E+05-2.20799E+03-1.14252E+05 3.88849E+06-1.14323E+05 8.65960E+04
 -1        13-8.57386E+06-1.88614E+00-4.37200E-01 3.47439E+06 2.74133E+00 1.98439E+06
 -1        14 9.09234E+06 3.61594E+00 3.18892E+00 3.15185E+06 4.39722E+00-1.97638E+06
 -1        15-7.42694E+05 1.02075E+05 8.76319E+04 2.02650E+05-6.48345E+04-4.32817E+06
 -1        16 9.42843E+06 2.37468E+00 2.66259E+00 1.97725E+06 4.16911E+00-3.77485E+06
 -1        17-9.15349E+06-1.98867E+00-1.80986E+00-2.27554E+06 3.15166E+00-3.66154E+06
 -1        18-1.31509E+06-7.93871E+04 2.48295E+05-4.13933E+06-6.21403E+04 2.95405E+05
 -1        19 8.66324E+06 1.97048E+00 4.81272E-01-3.62999E+06 2.89778E+00 1.78329E+06
 -1        20-9.03979E+06-2.64901E+00-1.79845E+00-3.56351E+06 3.24063E+00-2.24575E+06
 -1        21 1.90407E+05 5.28858E+05-1.56564E+05 5.87570E+04 1.46493E+07 6.32879E+06
 -1        22-1.81966E+06 9.35141E+05 6.18923E+06-6.59922E+05 5.26194E+06 3.84135E+06
 -1        23 1.48636E+06-1.70979E+05-5.85828E+06 7.22904E+05 5.67089E+06 4.46013E+06
 -1        24 2.31572E+05 1.14619E+05 5.04924E+05 6.38359E+06 1.46696E+07 6.55204E+04
 -1        25-1.79395E+06 6.29278E+06 9.54731E+05 3.85396E+06 5.26429E+06-6.22734E+05
 -1        26 1.50796E+06-5.65945E+06-1.55982E+05 4.45624E+06 5.66461E+06 7.23184E+05
 -1        27-2.60039E+05-2.68217E+05-2.80944E+05 1.91513E+05 1.40283E+07-7.43696E+06
 -1        28 1.49904E+06-5.74250E+05-7.66034E+06-4.66188E+05 5.48751E+06-4.55659E+06
 -1        29-1.99176E+06 7.70670E+05 7.03701E+06 4.52275E+05 5.24867E+06-4.18817E+06
 -1        30 1.95666E+05-1.36689E+06-1.92057E+05-7.50052E+06 1.34624E+07-5.98686E+05
 -1        31 1.66264E+06-7.55752E+06-5.39334E+05-4.51235E+06 5.59221E+06-4.39980E+05
 -1        32-1.15091E+06 6.44875E+06 6.32748E+05-4.06240E+06 5.51564E+06-2.85657E+05
 -1        33-3.09005E+07 1.23610E+06 1.19810E+06 3.06376E+06-1.65893E+06 2.71412E+06
 -1        34-2.50019E+07 4.30662E+03 2.68213E+05 1.64622E+06 2.20389E+05 9.60760E+05
 -1        35-2.09830E+07 2.80945E+06 2.83243E+06 1.75830E+05-2.35363E+06 2.69708E+05
 -1        36 3.22185E+07-8.16157E+05-1.58448E+05-1.90682E+06-7.30202E+05 1.84478E+06
 -1        37 2.43566E+07 4.87053E+04 3.95275E+03-1.52949E+06 1.81380E+05 8.68312E+05
 -1        38 2.17138E+07-2.89603E+06-1.31748E+06-2.06158E+05-8.77771E+05 5.07316E+05
 -1        39 3.22042E+07-1.60464E+05-7.96805E+05 1.84535E+06-7.45796E+05-1.97355E+06
 -1        40 2.43147E+07 2.36196E+05 3.38758E+05 8.68283E+05 3.07264E+04-1.64711E+06
 -1        41 2.17696E+07-1.33975E+06-2.92690E+06 4.95919E+05-8.93764E+05-2.09835E+05
 -1        42-3.15778E+07 8.45493E+05 1.02038E+06-1.80410E+06-7.56532E+05-2.47157E+06
 -1        43-2.50670E+07-1.36943E+05-1.99335E+05-9.51799E+05 3.56699E+05-1.31663E+06
 -1        44-2.07196E+07 2.27380E+06 2.63711E+06-1.75883E+05-1.15352E+06-8.60589E+04
 -1        45-4.53131E+05-2.56239E+05-3.31636E+05 6.80869E+05-1.82605E+06 5.31707E+05
 -1        46 8.90532E+06 3.81231E+03-4.77891E+05-3.02549E+06-8.60011E+05 2.56636E+06
 -1        47-9.57460E+06 4.86950E+05 5.60947E+05 2.61606E+06-1.40821E+06 2.46986E+06
 -1        48-8.09523E+06 6.34356E+04 6.21143E+04-3.12884E+06-5.32006E+05-3.05568E+06
 -1        49 8.92088E+06-2.89197E+05-2.49392E+05 2.86255E+06-2.69290E+05-2.91503E+06
 -1        50 1.35381E+07-8.44105E+04-2.07720E+05-3.24893E+06-1.46064E+05 2.84118E+06
 -1        51 4.48553E+06 3.12525E+00 1.28203E+00-1.48709E+06 5.41491E+00 3.70491E+06
 -1        52-3.29145E+05 7.85319E-01-7.09042E+04 1.66970E+04-3.53375E+05 3.04259E+06
 -1        53 2.95386E+06 1.49148E+05-1.12912E+06-1.51544E+06-4.89972E+05 1.88233E+06
 -1        54-4.85572E+06-4.36071E+05 1.65199E+03 8.57606E+05-2.17201E+05 3.50581E+06
 -1        55-1.36805E+07 1.46573E+05 2.82583E+05 3.17013E+06-2.14577E+05 3.20413E+06
 -1        56-4.40581E+06 1.18248E+06 1.06665E+06 2.21965E+06-1.12455E+06 2.16719E+06
 -1        57-4.91243E+06 3.60206E+04-2.59771E+05 3.72342E+06-1.11867E+05 9.61552E+05
 -1        58-4.12438E+05-4.94981E+04 6.03337E-01 3.07203E+06-3.56830E+05 6.18572E+04
 -1        59 4.85511E+06 2.19741E+00 2.71212E+00 3.54537E+06 5.34488E+00-1.40117E+06
 -1        60 1.33622E+07-5.44856E+04-5.45970E+04 2.85511E+06-5.45395E+04-3.16403E+06
 -1        61 2.18229E+06-4.73451E+05-3.32659E+05 2.48188E+06-4.03047E+05-2.27025E+06
 -1        62 4.11698E+06 7.38965E+04 3.62080E+05-3.88294E+06-2.17975E+05 1.07510E+06
 -1        63-1.07894E+06-2.97662E-04-7.82016E-02-2.57808E+06 1.67003E+01-3.80367E+05
 -1        64-4.71195E+06-7.20934E+04-5.97439E+04-1.69841E+06-6.59036E+04-3.74633E+06
 -1        65-1.33018E+07 1.28739E+05 1.32379E+05-3.27781E+06-1.30557E+05-3.33193E+06
 -1        66-3.49780E+06 9.98560E-01 1.87021E-01-1.54970E+06 1.82289E+01-1.51846E+06
 -1        67-1.32786E+06 8.38532E-01 3.46252E+05 1.23330E+05-3.71108E+05-2.77213E+06
 -1        68-4.76983E+06-8.18907E+04-6.75125E+04-3.78104E+06-7.46861E+04-1.53210E+06
 -1        69 4.78302E+06 1.37058E+00 1.26977E+00 1.66664E+06 5.36757E+00-3.78403E+06
 -1        70-5.39724E+05 1.08633E+06 4.55291E+05 1.18537E+06 4.50956E+07 1.26411E+06
 -1        71 1.88403E+06-1.42690E+06-1.49987E+06 1.34664E+06 2.72671E+07-8.64977E+05
 -1        72-3.14323E+06 7.11272E+05 2.14497E+06 1.58727E+06 2.53705E+07 7.69948E+05
 -1        73 1.88391E+06-1.19532E+06-1.36153E+06-9.24981E+05 2.71843E+07 1.43664E+06
 -1        74 4.37199E+04 8.97502E+05 7.43278E+05-1.35842E+05 2.52365E+07-1.48855E+05
 -1        75-1.17130E+06 1.33528E+06 8.95432E+05-2.57576E+06 1.93719E+07-3.30010E+05
 -1        76-2.80386E+06 2.07026E+06 2.70417E+06 5.20738E+05 1.14992E+07 3.88979E+05
 -1        77-1.35990E+05-1.00064E+06 3.25045E+06 8.86982E+05 2.14969E+07-1.63475E+06
 -1        78-4.12076E+04 1.97777E+06-1.46516E+06 3.35431E+05 3.20048E+07-2.79963E+05
 -1        79-4.77064E+05-8.22313E+04-1.92314E+06 3.91987E+06 3.68038E+07 2.32228E+06
 -1        80 5.29653E+02-9.61560E+05-2.97094E+05 4.13763E+05 3.20024E+07-1.46059E+05
 -1        81 2.11355E+05-2.45896E+06-2.77352E+05 1.19738E+06 2.19758E+07 1.07640E+06
 -1        82 3.17536E+06-2.41959E+06-2.82904E+06 7.50358E+04 1.24732E+07 1.94473E+05
 -1        83 2.81555E+05-8.34061E+05-3.56300E+06-5.49066E+05 2.15474E+07-1.29439E+06
 -1        84-6.91943E+05-1.49139E+05 1.63689E+06-1.87850E+06 3.80271E+07 2.80659E+06
 -1        85-1.55012E+06 1.99953E+06 1.85722E+06 1.70287E+06 3.35612E+07 3.61902E+04
 -1        86 6.56001E+05 2.76509E+06 1.42197E+05 2.45799E+06 2.09406E+07-3.45062E+05
 -1        87-2.04619E+06 2.45939E+06 2.39190E+06-2.08685E+05 1.04994E+07-1.99084E+05
 -1        88 6.33317E+05 2.21947E+05 2.52948E+06-3.59447E+05 2.09368E+07 2.41865E+06
 -1        89-6.31021E+05 6.29394E+05 6.75058E+05-6.37956E+05 4.15034E+07-5.74134E+05
 -1        90-1.57887E+06 1.69320E+06 1.77009E+06-4.76131E+04 3.36883E+07 1.71709E+06
 -1        91 3.74872E+05-3.38924E+06-9.08179E+05-1.19002E+06 2.16458E+07-4.87356E+05
 -1        92 3.12949E+06-2.88225E+06-2.55020E+06 1.11620E+05 1.24801E+07 1.04753E+05
 -1        93-5.35816E+05 1.52571E+06-7.77846E+05 2.76388E+06 3.83328E+07-1.82759E+06
 -1        94 2.36819E+05-2.98192E+05-2.76131E+06 1.03994E+06 2.20001E+07 1.20549E+06
 -1        95 5.46551E+05 8.99740E+05 3.43744E+04 5.82983E+05-1.07480E+06 1.19608E+07
 -1        96 1.05770E+07-1.63666E+06-6.03251E+06-2.78802E+05-2.66377E+06 8.49718E+06
 -1        97-1.34111E+07-2.58421E+05 9.16778E+06-1.09906E+06-6.56482E+05 8.31970E+06
 -1        98-1.58299E+07-3.67959E+05 3.56718E+05 3.07404E+04-2.10710E+06 5.76553E+06
 -1        99 1.57676E+07-2.80783E+05-1.00410E+06-5.60637E+05-2.20677E+06 5.65648E+06
 -1       100-1.67133E+07-1.98139E+05 3.25672E+05 1.34533E+06-6.20304E+05 4.21986E+06
 -1       101-7.14166E+06 1.10465E+05 1.37084E+05 5.67778E+05-5.35844E+05 4.62668E+06
 -1       102-2.26155E+05 5.49754E+05 2.15381E+05 3.53142E+05-1.14877E+06 6.54414E+06
 -1       103-9.02629E+06 6.82400E+05 1.18941E+06 2.17616E+05-1.90774E+06 8.03098E+06
 -1       104 8.44322E+06 4.60671E+05-1.09125E+06 1.67882E+05-1.31744E+06 8.74719E+06
 -1       105 7.74740E+06-5.25681E+05-2.46218E+05-6.44120E+05-1.14896E+06 4.65526E+06
 -1       106 1.70801E+07-3.62275E+04-6.54253E+05-1.46764E+06-7.41964E+05 3.73264E+06
 -1       107 6.31790E+06 5.78210E+05-4.15992E+06 5.77913E+05-1.33679E+06 1.44310E+07
 -1       108 2.37527E+07 1.54719E+05-4.35421E+06 2.29378E+05-6.20148E+05 6.29690E+06
 -1       109 1.81337E+07 1.08366E+06-1.50254E+06 3.22509E+05-6.86055E+05 7.66926E+06
 -1       110 1.32218E+05 1.10833E+05-1.23262E+06 8.07173E+05 5.72833E+06 1.26272E+07
 -1       111 4.27119E+06-8.27473E+05-6.09054E+06 1.82338E+05 4.95558E+06 7.96868E+06
 -1       112 8.07467E+06-1.98558E+06-6.50246E+06 4.07250E+05-1.81302E+06 3.66511E+06
 -1       113-7.40720E+06-2.31797E+05 4.60545E+06-1.62852E+05-9.81748E+05 1.31200E+07
 -1       114-5.26241E+06 6.80669E+05 6.64120E+06-9.11924E+05 6.04033E+06 8.16274E+06
 -1       115-1.65652E+07 5.31469E+05 1.52663E+06 1.52760E+06-1.64413E+06 8.26931E+06
 -1       116-2.33717E+07-1.62418E+04 5.32546E+06 5.34505E+05-1.43332E+06 6.12840E+06
 -1       117-1.01043E+07 1.03293E+06 7.71897E+06-9.91723E+05-1.43617E+06 3.37882E+06
 -1       118-2.33198E+07 3.07358E+05 4.87375E+05 1.52021E+06-1.48076E+06 4.29487E+06
 -1       119 2.38891E+07-3.19427E+05-1.01077E+06-8.31056E+05-1.26316E+06 3.37381E+06
 -1       120 1.48548E+06 5.82084E+04 3.18895E+05-9.10188E+05-2.97427E+06-1.11165E+07
 -1       121 1.14299E+07-9.44124E+05-5.40476E+06-9.32687E+05 5.34522E+05-7.32369E+06
 -1       122 1.40562E+07-1.38438E+05-5.97089E+05 6.85439E+05-1.57216E+06-6.54917E+06
 -1       123-1.20801E+07 1.15515E+06 5.07786E+06 6.20719E+05 3.43228E+05-7.17223E+06
 -1       124-1.57090E+07 3.23922E+05 2.65481E+05-6.40407E+05-1.31351E+06-5.76010E+06
 -1       125-2.28284E+07-5.91677E+05 3.41501E+06 5.07929E+05 3.29845E+05-4.65253E+06
 -1       126-6.90398E+06 5.93371E+05 2.40862E+06 2.98575E+05-2.29016E+06-1.01010E+07
 -1       127-1.70165E+07 4.42839E+05 2.34770E+06-4.52480E+05-4.60874E+05-8.09023E+06
 -1       128-8.89102E+06 1.84512E+06 5.24174E+06 6.56058E+05-1.38943E+06-3.45737E+06
 -1       129-2.41598E+07 7.54998E+05 2.93040E+05-1.13919E+06-3.42075E+05-4.36615E+06
 -1       130-8.36487E+06-1.17207E+05 1.82936E+06 5.65931E+04-1.42801E+06-9.47266E+06
 -1       131-1.67175E+07-1.13240E+05-1.97766E+05-1.63073E+06-5.56640E+05-4.07780E+06
 -1       132 2.41198E+07 6.65492E+05-3.61406E+06-5.50377E+05 3.65805E+05-4.24435E+06
 -1       133 1.85561E+07 1.60056E+04-2.22089E+06 1.82054E+05-7.97600E+05-7.06521E+06
 -1       134 6.23229E+06-4.68419E+05-1.35690E+06-1.02249E+06-1.57035E+06-9.46900E+06
 -1       135 8.00984E+06-1.24759E+06-5.58833E+06-9.35999E+05-1.44105E+06-4.21471E+06
 -1       136 3.99883E+06-1.36725E+06-8.24204E+06-2.92858E+05 5.01918E+06-9.85937E+06
 -1       137-5.28686E+05 2.22505E+05-1.96752E+05 7.68425E+04 1.92728E+06-1.25042E+07
 -1       138 6.40666E+06-1.77510E+05-2.04132E+05 9.59194E+05-1.02916E+06-5.48600E+06
 -1       139-1.35331E+04-2.35004E+05 6.04351E+05 5.64860E+05-9.59009E+05-7.97257E+06
 -1       140 8.57254E+06-5.78001E+05-1.00496E+06 5.72317E+05-1.31987E+06-9.52951E+06
 -1       141 1.65070E+07 2.18200E+05-2.23436E+05 1.12904E+06-6.24683E+05-4.24821E+06
 -1       142 2.36363E+07-3.84535E+04-1.12006E+06 3.21684E+05-3.94052E+05-4.08700E+06
 -1       143-5.15885E+06 1.78485E+06 8.08536E+06 7.75696E+05 4.74983E+06-9.35804E+06
 -1       144-7.88205E+06 2.35907E+05 3.85395E+05-3.90922E+05-7.36506E+05-4.51006E+06
 -1       145 2.33508E+05-1.97733E+05 7.25869E+05 1.17541E+07-1.15690E+06 4.83188E+05
 -1       146 1.61126E+07-1.12832E+06-3.31152E+05 5.69947E+06-2.17181E+06-5.97124E+05
 -1       147 1.07371E+07-5.98320E+06-1.69943E+06 8.45608E+06-2.60030E+06-2.48115E+05
 -1       148-1.33009E+07 9.09783E+06-2.84548E+05 8.32311E+06-6.76997E+05-1.16906E+06
 -1       149-1.53171E+07 5.21256E+05-2.94161E+05 5.66683E+06-7.47179E+05-3.37913E+05
 -1       150-7.10638E+06 4.41041E+05-2.53158E+04 4.51782E+06-5.04939E+05 1.39990E+05
 -1       151-1.63036E+07-1.01144E+05-5.43668E+05 4.02301E+06-5.09690E+05 1.07909E+06
 -1       152-2.10589E+05-1.01564E+05 3.94712E+05 6.49448E+06-1.33047E+06 3.92775E+05
 -1       153 7.44303E+06-3.56923E+05-4.66290E+05 4.80528E+06-1.11300E+06-6.52958E+05
 -1       154 8.73435E+06-1.29880E+06 4.58799E+05 8.65899E+06-1.35020E+06 1.84090E+05
 -1       155-8.77011E+06 7.50686E+05 1.49658E+05 8.38864E+06-7.34407E+05 8.55828E+04
 -1       156 1.68822E+07-6.28030E+05 3.17905E+04 3.80665E+06-7.66125E+05-1.44601E+06
 -1       157-2.45363E+07 9.28370E+05 2.88428E+05 4.43110E+06 3.87664E+04 2.29589E+05
 -1       158 2.40373E+07-9.55688E+05-2.15377E+05 3.21480E+06-1.33677E+06-8.58409E+05
 -1       159 1.82812E+07-1.62091E+06 1.02652E+06 7.69181E+06-6.97232E+05 3.75684E+05
 -1       160 2.38671E+07-4.35318E+06 1.30377E+05 6.27056E+06-6.15962E+05 2.09332E+05
 -1       161 6.61588E+06-4.19215E+06 5.70427E+05 1.43855E+07-1.34198E+06 6.49700E+05
 -1       162 8.16145E+06-6.43884E+06-1.97892E+06 3.63034E+06-1.80775E+06 4.35692E+05
 -1       163 4.37190E+06-5.90878E+06-9.21836E+05 7.96253E+06 4.99967E+06 2.03343E+05
 -1       164 3.55254E+05-1.14167E+06 7.52049E+04 1.26299E+07 5.65010E+06 8.71159E+05
 -1       165-5.18290E+06 6.70586E+06 7.04034E+05 8.21075E+06 6.03756E+06-9.39797E+05
 -1       166-7.19257E+06 4.42779E+06-3.16604E+05 1.30046E+07-1.20120E+06-2.02711E+05
 -1       167-2.33476E+07 5.19337E+06 3.54315E+04 6.03154E+06-1.44133E+06 5.15007E+05
 -1       168-1.67198E+07 1.32649E+06 4.47187E+05 7.57537E+06-1.04274E+06 1.03710E+06
 -1       169-1.00456E+07 7.69723E+06 1.01388E+06 3.37392E+06-1.45053E+06-1.02400E+06
 -1       170 7.55366E+05 7.18096E+05-4.19170E+05-1.15290E+07-3.08290E+06-3.63025E+05
 -1       171-1.08317E+07 6.71697E+06 7.66885E+05-1.00250E+07-1.43582E+06 6.36169E+05
 -1       172 1.13612E+07-5.33600E+06-1.05659E+06-7.22930E+06 3.60765E+05-8.11077E+05
 -1       173-1.57845E+07 7.58771E+05 3.52836E+05-5.54363E+06-1.35061E+06-5.44420E+05
 -1       174 1.53484E+07-7.62478E+05 2.88237E+05-6.02069E+06-7.62201E+05-2.23472E+05
 -1       175-2.43663E+07 8.18726E+05 8.32688E+05-3.83577E+06-5.24921E+05-1.32078E+06
 -1       176-1.67360E+07-5.80895E+04-3.71376E+04-3.86144E+06-5.70076E+05-1.63378E+06
 -1       177-8.10048E+06 2.59211E+06-2.59958E+05-9.62549E+06-1.00249E+06 1.65141E+05
 -1       178-1.82447E+07 3.22313E+06-4.75151E+05-7.37741E+06-1.02760E+06 2.94136E+05
 -1       179-2.22926E+07 3.62753E+06-3.91742E+04-5.77255E+06-8.30177E+05-5.67375E+05
 -1       180-8.40959E+06 6.72590E+06 1.69545E+06-4.83644E+06-1.19102E+06 7.73177E+05
 -1       181-6.73218E+06 4.81357E+06-5.65517E+05-1.20116E+07-3.29082E+06 9.88197E+05
 -1       182 2.41070E+07-3.63010E+06 6.59123E+05-4.15588E+06 3.24364E+05-5.32214E+05
 -1       183 5.93777E+06-1.34310E+06-6.21105E+05-9.24705E+06-1.87624E+06-8.12103E+05
 -1       184 1.86537E+07-2.31192E+06 1.69897E+05-6.81319E+06-9.03944E+05 5.42861E+04
 -1       185 7.89933E+06-5.61211E+06-1.28275E+06-4.20488E+06-1.51281E+06-9.15422E+05
 -1       186 4.03992E+06-8.12610E+06-1.24703E+06-9.67290E+06 5.00358E+06-2.33999E+05
 -1       187-5.84875E+05 8.84412E+05 3.99932E+05-1.25599E+07 1.56974E+06 1.00555E+05
 -1       188-7.96989E+06 6.52707E+05 2.78233E+05-4.44576E+06-8.15208E+05-1.46348E+05
 -1       189 4.65650E+05 3.05225E+05-3.27691E+05-7.79637E+06-9.77247E+05 8.81166E+05
 -1       190 2.40606E+07-8.78569E+05 6.84791E+03-4.23937E+06-1.94920E+05 3.00410E+05
 -1       191 9.34530E+06-1.66899E+06 4.41305E+04-9.19894E+06-6.25705E+05 1.64099E+05
 -1       192 1.63875E+07 1.31049E+04 5.26803E+05-4.24389E+06-4.59248E+05 9.91938E+05
 -1       193 6.95210E+06-3.31286E+05-8.74764E+04-4.77387E+06-5.43720E+05 2.58497E+05
 -1       194-4.25054E+06 5.16662E+06 1.03300E+06-1.01185E+07 3.77729E+06-1.49512E+05
 -1       195-2.66022E+06-3.49904E+04 3.34804E+05-2.54559E+06-3.31800E+06-2.56777E+06
 -1       196-9.57760E+05-2.15687E+05-3.96592E+05 9.82752E+05 8.45981E+06 9.72731E+05
 -1       197-1.23730E+07-6.28587E+03 6.03681E+05 1.21728E+06-1.94552E+06 4.09686E+06
 -1       198-5.79228E+06 3.38023E+05 9.50025E+05 9.01425E+05-2.11591E+06 5.28581E+06
 -1       199-8.06375E+06-3.11049E+05-4.02937E+05 1.29116E+06 6.86240E+05 4.49412E+06
 -1       200-1.19755E+06 1.74191E+05 6.16374E+05 4.99941E+05 2.93890E+06 6.63099E+06
 -1       201-4.73377E+06-1.76006E+05-8.06695E+05 2.47467E+06-3.05096E+05 2.55535E+06
 -1       202 9.73333E+06-1.36260E+06-1.94703E+06 5.65237E+06 1.13424E+06-2.29280E+06
 -1       203 1.21375E+07-2.45432E+06-3.05556E+06 3.09493E+06 1.51377E+05-2.70245E+06
 -1       204 4.86172E+06-1.17411E+05-1.39959E+06-8.07610E+05 6.90966E+06-1.50790E+06
 -1       205 3.56596E+06-1.99853E+06-2.07650E+05 3.30963E+06 4.98547E+06-1.07057E+05
 -1       206-1.37069E+06 6.11350E+05 1.61920E+05 6.38737E+06 2.69796E+06 4.33006E+05
 -1       207 4.08568E+06-1.45676E+06-1.74852E+06 1.57225E+05 2.24537E+07-2.12742E+06
 -1       208 5.83553E+06-1.91538E+06-4.01325E+06 2.98415E+05 1.22876E+07-3.54234E+06
 -1       209-3.71203E+06 1.37665E+06 1.63918E+06-6.52598E+06 8.64707E+06-2.13069E+05
 -1       210-6.84434E+06 3.91088E+06 2.41726E+06-4.08318E+06 1.06777E+07-1.55516E+05
 -1       211 4.32815E+06-1.54328E+06-1.91707E+06-2.26476E+06 2.25723E+07 3.78289E+05
 -1       212 5.76350E+06-3.97313E+06-2.08669E+06-3.58525E+06 1.22400E+07 4.05690E+05
 -1       213 1.17785E+07-1.26079E+06-2.32293E+05-5.61734E+06-1.85407E+06 2.17278E+06
 -1       214 1.67818E+07-3.51837E+05-3.81829E+05-2.78415E+06-1.40677E+06 2.20673E+06
 -1       215-1.25536E+07 6.14498E+05 2.25006E+05 4.33854E+06-9.07265E+05 1.05817E+06
 -1       216-5.99496E+06 6.58570E+05 3.35916E+05 5.89300E+06-2.02510E+06 1.08927E+06
 -1       217-5.21260E+06 1.85623E+06 1.82243E+06 6.09658E+05 2.08659E+07-2.36380E+06
 -1       218-7.45287E+06 1.99991E+06 4.22911E+06 3.01150E+05 1.19938E+07-2.80013E+06
 -1       219-7.38680E+05-3.44109E+04 8.75417E+05 4.88522E+04 1.69339E+07-4.06636E+06
 -1       220 5.16790E+05 1.33383E+05 3.97530E+05-2.20905E+05 3.09717E+06-2.83692E+06
 -1       221 1.86103E+04-4.44351E+05-4.65406E+05 4.77610E+05 2.70628E+07 6.20756E+05
 -1       222-8.69333E+05 7.18184E+05-3.38478E+05-4.22868E+06 1.73103E+07 3.36825E+05
 -1       223 4.89973E+06-1.34052E+06-2.22515E+05-1.45070E+06 6.85214E+06-8.06078E+05
 -1       224 4.82023E+05 4.78770E+05-4.68257E+04-2.62087E+06 3.07415E+06-1.81231E+05
 -1       225 5.68174E+06-4.54690E+05-5.21366E+05-3.79743E+06-6.83836E+05 4.30987E+06
 -1       226 5.13878E+06-3.68201E+05 7.85357E+05-2.34620E+06-2.53586E+06 2.39074E+06
 -1       227-6.27507E+05 2.48294E+05 5.73907E+05-1.12036E+06-7.72596E+05 4.14700E+06
 -1       228-1.06948E+06 5.70226E+05-5.85785E+04-6.40519E+06-2.10170E+06-1.45657E+06
 -1       229 4.87047E+04-1.74473E+04 4.81389E+05 4.91651E+06-2.54725E+06 2.94898E+05
 -1       230-2.48616E+04-2.13578E+05-3.00538E+05 1.42511E+06-5.07975E+05 1.35343E+06
 -1       231-5.77246E+06-2.10509E+05 9.12969E+05-1.16973E+06-5.47385E+05-4.66049E+06
 -1       232-7.99214E+05 6.18824E+05 2.06034E+06-7.22454E+05 1.53202E+07-8.12988E+05
 -1       233-1.68484E+06 5.51851E+04 2.44338E+05-1.53513E+06-2.38851E+06-6.66558E+06
 -1       234-1.34861E+04 4.86293E+05 2.76859E+04 3.33598E+05-2.45728E+06 5.04933E+06
 -1       235 5.59297E+06-4.71307E+05-3.60207E+05 4.32922E+06-6.09021E+05-3.93514E+06
 -1       236-5.31698E+05 2.99376E+05 3.99040E+05 4.21204E+06-7.69279E+05-1.15999E+06
 -1       237-4.99276E+05-6.26785E+05-4.73035E+05-1.12145E+06-3.30017E+06-8.42557E+05
 -1       238-2.33132E+05-5.78815E+05-4.64011E+05-5.23982E+05 3.46919E+06-7.04600E+05
 -1       239-6.12193E+06 5.37886E+06 9.20143E+05 2.93181E+06 1.07110E+07-1.10294E+05
 -1       240-9.19324E+05 4.60956E+05 6.19430E+05 3.49504E+06 1.21221E+07 4.89188E+05
 -1       241-1.00704E+06-6.40379E+05-7.86513E+05 1.34717E+06 1.78005E+07 1.32192E+06
 -1       242-6.39878E+06 3.99716E+06-3.35438E+05 4.60202E+06 4.17175E+06-2.56082E+05
 -1       243-6.16727E+06 9.77001E+05 5.31946E+06-7.77707E+04 1.07109E+07 2.91054E+06
 -1       244-9.52408E+05 6.71162E+05 2.99106E+05 4.83775E+05 1.21347E+07 3.43687E+06
 -1       245-6.45740E+06-2.38540E+05 3.91941E+06-1.68332E+05 4.21941E+06 4.51834E+06
 -1       246-1.40312E+07 3.34817E+06 3.33569E+06 3.00787E+06 2.50934E+05 2.98828E+06
 -1       247-1.38807E+07 5.31795E+05 4.97527E+05 1.85797E+06 2.13382E+06 1.75009E+06
 -1       248-1.62153E+07 2.92627E+05 1.25727E+05-3.16234E+06-1.02846E+06-3.24229E+06
 -1       249-9.10952E+06 4.76048E+05 5.66463E+05-1.62872E+06-2.87209E+06-4.60798E+06
 -1       250-9.14220E+06 7.68472E+05 5.97042E+05-4.54577E+06-2.90125E+06-1.57067E+06
 -1       251-1.50462E+07 7.97674E+05 7.41954E+05-2.57504E+06-1.92249E+06-2.56540E+06
 -1       252-1.18876E+07 3.64222E+05 2.39787E+05-1.83378E+06-1.02736E+06-4.44999E+06
 -1       253-2.60115E+06 1.96176E+05-9.03203E+03-7.46084E+05-2.26924E+06-4.34780E+06
 -1       254-5.52931E+06 2.35275E+05 3.77268E+05-2.84948E+06-3.11852E+06-2.79709E+06
 -1       255-1.19124E+07 4.23921E+05 3.55015E+05-4.39799E+06-1.04977E+06-1.75095E+06
 -1       256-2.66272E+06-1.79070E+05 3.47434E+05-4.16411E+06-2.52114E+06-4.75137E+05
 -1       257 3.63675E+06-9.77327E+04-5.68957E+05 1.93765E+05-2.50151E+06-5.37290E+06
 -1       258 3.48245E+06-1.41241E+05-2.05119E+06-1.49741E+05 5.00203E+06 3.26026E+06
 -1       259 2.54040E+06-3.10816E+05 2.74321E+05-3.21905E+06-2.62065E+06 4.85333E+05
 -1       260 1.20837E+07-3.08506E+05-3.72396E+05 1.38819E+06-1.07963E+06-4.53241E+06
 -1       261 1.22477E+07-7.60629E+05-5.10103E+05 4.33199E+06-1.16319E+06-1.61534E+06
 -1       262 6.12939E+06-2.86920E+06-2.39247E+06 3.08180E+06 1.09749E+07-3.32027E+05
 -1       263 1.20915E+07-3.00302E+06-2.53660E+06-2.66302E+06 3.87678E+04 3.16513E+06
 -1       264 1.24198E+07-4.86296E+05-1.59257E+05-4.43016E+06-9.11219E+05 9.91936E+05
 -1       265-1.64496E+07-2.69925E+04 6.95710E+04 2.56727E+06-1.32877E+06 2.37758E+06
 -1       266 1.22238E+07-3.72877E+05-9.26307E+05-1.66882E+06-1.64397E+06 4.23760E+06
 -1       267-1.22126E+07 2.73199E+06 2.35373E+06-3.81629E+06 9.54238E+05-2.08534E+06
 -1       268 1.60653E+07-4.87600E+05-4.27897E+05 2.79271E+06-1.71790E+06-3.45000E+06
 -1       269 6.06041E+06-2.36604E+06-3.00463E+06-3.84909E+05 1.09761E+07 3.14744E+06
 -1       270 3.91281E+06-8.56676E+05-6.35321E+05 2.78063E+06 2.11251E+07-3.82148E+04
 -1       271 5.86065E+06-9.66786E+05-4.24230E+05 3.33198E+06-2.15869E+06-7.00006E+05
 -1       272 5.36297E+06-2.45574E+04-2.77301E+05 2.50984E+06-2.48624E+06-2.13645E+06
 -1       273-1.01749E+07-4.98972E+03-6.78339E+04 5.07574E+06-1.74659E+06 2.33470E+06
 -1       274 9.62937E+06-1.93422E+06-1.38799E+06-2.29531E+06 1.06892E+06 5.69323E+06
 -1       275 3.80948E+06-6.78023E+05-1.09543E+06-1.65292E+05 2.12901E+07 2.85705E+06
 -1       276 6.13131E+06-2.33333E+05-1.15893E+06-6.98145E+05-2.10889E+06 3.07471E+06
 -1       277-8.46571E+06 1.12684E+06 9.79558E+05-5.57068E+06-1.81039E+05-2.31745E+06
 -1       278 1.27593E+07-3.52536E+05-1.17044E+06 1.79511E+06-1.81112E+06-5.86330E+06
 -1       279 6.33686E+06-2.57354E+05-3.40521E+05-7.26815E+06-1.63409E+06 1.35804E+06
 -1       280 4.97976E+06-3.15179E+05 7.90364E+04 8.24979E+05-1.66293E+06-3.78312E+06
 -3
    1PSTEP                        21           1           1          
    1PGM                1.000000E+00                                  
    1PGK                1.539154E+12                                  
    1PHID                         -1                                  
    1PSUBC                         0                                  
    1PMODE                         7                                  
  100CL  107 1.97452E+05         280                     2    7MODAL      1
 -4  TOSTRAIN    6    1
 -5  EXX         1    4    1    1
 -5  EYY         1    4    2    2
 -5  EZZ         1    4    3    3
 -5  EXY         1    4    1    2
 -5  EYZ         1    4    2    3
 -5  EZX         1    4    3    1
 -1         1-8.48338E+01-2.72987E+00-2.47778E+00 1.44621E+01-7.80712E-01 1.44941E+01
 -1         2 8.51533E+01 2.62844E+00 2.54658E+00-1.51464E+01-2.59734E-01 1.25935E+01
 -1         3 8.44151E+01 2.81471E+00 2.73136E+00 1.28832E+01-3.69870E-01-1.53892E+01
 -1         4-8.43537E+01-2.88303E+00-2.59711E+00-1.48859E+01-7.08916E-01-1.56622E+01
 -1         5-3.14789E+01 2.23350E+01 2.23152E+01-2.81231E+00-1.14611E+01-2.76450E+00
 -1         6 2.53485E+01-2.27595E+01-2.07095E+01-8.02570E-01-7.86438E+00-4.63209E-01
 -1         7 2.56812E+01-2.05957E+01-2.24404E+01-4.48862E-01-7.81963E+00-4.80118E-01
 -1         8-2.66717E+01 2.25343E+01 2.00264E+01-8.10699E-01-8.60478E+00 2.21366E+00
 -1         9 2.75173E+00-5.04923E-01 7.18000E-01 4.72375E-01-2.33369E-01 1.92447E+01
 -1        10-4.23238E+01-1.17625E-05-5.36625E-06 1.03354E+01 9.49463E-06 1.61847E+01
 -1        11 4.57818E+01 1.93292E-05 1.85069E-05-1.00680E+01 1.91747E-05 1.59388E+01
 -1        12 2.93510E+00-1.10400E-02-5.71258E-01 1.94424E+01-5.71616E-01 4.32980E-01
 -1        13-4.28693E+01-9.43070E-06-2.18600E-06 1.73719E+01 1.37067E-05 9.92193E+00
 -1        14 4.54617E+01 1.80797E-05 1.59446E-05 1.57592E+01 2.19861E-05-9.88189E+00
 -1        15-3.71347E+00 5.10373E-01 4.38159E-01 1.01325E+00-3.24172E-01-2.16408E+01
 -1        16 4.71421E+01 1.18734E-05 1.33129E-05 9.88623E+00 2.08455E-05-1.88742E+01
 -1        17-4.57675E+01-9.94336E-06-9.04929E-06-1.13777E+01 1.57583E-05-1.83077E+01
 -1        18-6.57544E+00-3.96936E-01 1.24147E+00-2.06966E+01-3.10701E-01 1.47702E+00
 -1        19 4.33162E+01 9.85239E-06 2.40636E-06-1.81500E+01 1.44889E-05 8.91644E+00
 -1        20-4.51989E+01-1.32451E-05-8.99225E-06-1.78175E+01 1.62032E-05-1.12288E+01
 -1        21 9.52035E-01 2.64429E+00-7.82818E-01 2.93785E-01 7.32463E+01 3.16439E+01
 -1        22-9.09829E+00 4.67571E+00 3.09462E+01-3.29961E+00 2.63097E+01 1.92068E+01
 -1        23 7.43180E+00-8.54894E-01-2.92914E+01 3.61452E+00 2.83544E+01 2.23006E+01
 -1        24 1.15786E+00 5.73096E-01 2.52462E+00 3.19179E+01 7.33478E+01 3.27602E-01
 -1        25-8.96976E+00 3.14639E+01 4.77366E+00 1.92698E+01 2.63214E+01-3.11367E+00
 -1        26 7.53978E+00-2.82973E+01-7.79911E-01 2.22812E+01 2.83230E+01 3.61592E+00
 -1        27-1.30020E+00-1.34109E+00-1.40472E+00 9.57566E-01 7.01415E+01-3.71848E+01
 -1        28 7.49522E+00-2.87125E+00-3.83017E+01-2.33094E+00 2.74376E+01-2.27829E+01
 -1        29-9.95880E+00 3.85335E+00 3.51851E+01 2.26138E+00 2.62433E+01-2.09408E+01
 -1        30 9.78328E-01-6.83447E+00-9.60286E-01-3.75026E+01 6.73122E+01-2.99343E+00
 -1        31 8.31321E+00-3.77876E+01-2.69667E+00-2.25618E+01 2.79610E+01-2.19990E+00
 -1        32-5.75455E+00 3.22438E+01 3.16374E+00-2.03120E+01 2.75782E+01-1.42829E+00
 -1        33-1.54502E+02 6.18051E+00 5.99048E+00 1.53188E+01-8.29464E+00 1.35706E+01
 -1        34-1.25010E+02 2.15331E-02 1.34107E+00 8.23110E+00 1.10194E+00 4.80380E+00
 -1        35-1.04915E+02 1.40473E+01 1.41621E+01 8.79152E-01-1.17681E+01 1.34854E+00
 -1        36 1.61092E+02-4.08079E+00-7.92242E-01-9.53410E+00-3.65101E+00 9.22388E+00
 -1        37 1.21783E+02 2.43526E-01 1.97638E-02-7.64743E+00 9.06900E-01 4.34156E+00
 -1        38 1.08569E+02-1.44801E+01-6.58738E+00-1.03079E+00-4.38886E+00 2.53658E+00
 -1        39 1.61021E+02-8.02319E-01-3.98402E+00 9.22673E+00-3.72898E+00-9.86777E+00
 -1        40 1.21574E+02 1.18098E+00 1.69379E+00 4.34142E+00 1.53632E-01-8.23556E+00
 -1        41 1.08848E+02-6.69873E+00-1.46345E+01 2.47960E+00-4.46882E+00-1.04917E+00
 -1        42-1.57889E+02 4.22747E+00 5.10191E+00-9.02048E+00-3.78266E+00-1.23578E+01
 -1        43-1.25335E+02-6.84715E-01-9.96676E-01-4.75899E+00 1.78350E+00-6.58314E+00
 -1        44-1.03598E+02 1.13690E+01 1.31856E+01-8.79416E-01-5.76758E+00-4.30295E-01
 -1        45-2.26565E+00-1.28120E+00-1.65818E+00 3.40435E+00-9.13027E+00 2.65854E+00
 -1        46 4.45266E+01 1.90615E-02-2.38945E+00-1.51275E+01-4.30005E+00 1.28318E+01
 -1        47-4.78730E+01 2.43475E+00 2.80474E+00 1.30803E+01-7.04107E+00 1.23493E+01
 -1        48-4.04761E+01 3.17178E-01 3.10571E-01-1.56442E+01-2.66003E+00-1.52784E+01
 -1        49 4.46044E+01-1.44599E+00-1.24696E+00 1.43128E+01-1.34645E+00-1.45752E+01
 -1        50 6.76906E+01-4.22052E-01-1.03860E+00-1.62446E+01-7.30321E-01 1.42059E+01
 -1        51 2.24277E+01 1.56263E-05 6.41016E-06-7.43546E+00 2.70746E-05 1.85245E+01
 -1        52-1.64573E+00 3.92659E-06-3.54521E-01 8.34849E-02-1.76688E+00 1.52130E+01
 -1        53 1.47693E+01 7.45741E-01-5.64561E+00-7.57722E+00-2.44986E+00 9.41164E+00
 -1        54-2.42786E+01-2.18036E+00 8.25997E-03 4.28803E+00-1.08601E+00 1.75291E+01
 -1        55-6.84023E+01 7.32864E-01 1.41292E+00 1.58506E+01-1.07288E+00 1.60206E+01
 -1        56-2.20290E+01 5.91242E+00 5.33323E+00 1.10983E+01-5.62277E+00 1.08360E+01
 -1        57-2.45622E+01 1.80103E-01-1.29886E+00 1.86171E+01-5.59335E-01 4.80776E+00
 -1        58-2.06219E+00-2.47490E-01 3.01669E-06 1.53601E+01-1.78415E+00 3.09286E-01
 -1        59 2.42756E+01 1.09871E-05 1.35606E-05 1.77269E+01 2.67244E-05-7.00587E+00
 -1        60 6.68110E+01-2.72428E-01-2.72985E-01 1.42755E+01-2.72698E-01-1.58201E+01
 -1        61 1.09114E+01-2.36725E+00-1.66329E+00 1.24094E+01-2.01524E+00-1.13513E+01
 -1        62 2.05849E+01 3.69482E-01 1.81040E+00-1.94147E+01-1.08988E+00 5.37549E+00
 -1        63-5.39469E+00-1.48831E-09-3.91008E-07-1.28904E+01 8.35013E-05-1.90183E+00
 -1        64-2.35598E+01-3.60467E-01-2.98719E-01-8.49204E+00-3.29518E-01-1.87316E+01
 -1        65-6.65091E+01 6.43695E-01 6.61895E-01-1.63890E+01-6.52787E-01-1.66596E+01
 -1        66-1.74890E+01 4.99280E-06 9.35105E-07-7.74849E+00 9.11446E-05-7.59230E+00
 -1        67-6.63929E+00 4.19266E-06 1.73126E+00 6.16650E-01-1.85554E+00-1.38606E+01
 -1        68-2.38492E+01-4.09453E-01-3.37563E-01-1.89052E+01-3.73430E-01-7.66052E+00
 -1        69 2.39151E+01 6.85290E-06 6.34885E-06 8.33320E+00 2.68378E-05-1.89201E+01
 -1        70-2.69862E+00 5.43166E+00 2.27646E+00 5.92687E+00 2.25478E+02 6.32054E+00
 -1        71 9.42016E+00-7.13449E+00-7.49935E+00 6.73321E+00 1.36336E+02-4.32488E+00
 -1        72-1.57162E+01 3.55636E+00 1.07248E+01 7.93634E+00 1.26853E+02 3.84974E+00
 -1        73 9.41954E+00-5.97662E+00-6.80767E+00-4.62491E+00 1.35922E+02 7.18322E+00
 -1        74 2.18599E-01 4.48751E+00 3.71639E+00-6.79212E-01 1.26183E+02-7.44273E-01
 -1        75-5.85649E+00 6.67639E+00 4.47716E+00-1.28788E+01 9.68593E+01-1.65005E+00
 -1        76-1.40193E+01 1.03513E+01 1.35209E+01 2.60369E+00 5.74961E+01 1.94490E+00
 -1        77-6.79949E-01-5.00318E+00 1.62522E+01 4.43491E+00 1.07484E+02-8.17374E+00
 -1        78-2.06038E-01 9.88885E+00-7.32581E+00 1.67716E+00 1.60024E+02-1.39981E+00
 -1        79-2.38532E+00-4.11156E-01-9.61572E+00 1.95994E+01 1.84019E+02 1.16114E+01
 -1        80 2.64826E-03-4.80780E+00-1.48547E+00 2.06881E+00 1.60012E+02-7.30296E-01
 -1        81 1.05678E+00-1.22948E+01-1.38676E+00 5.98690E+00 1.09879E+02 5.38202E+00
 -1        82 1.58768E+01-1.20979E+01-1.41452E+01 3.75179E-01 6.23658E+01 9.72366E-01
 -1        83 1.40777E+00-4.17031E+00-1.78150E+01-2.74533E+00 1.07737E+02-6.47193E+00
 -1        84-3.45972E+00-7.45694E-01 8.18443E+00-9.39250E+00 1.90135E+02 1.40329E+01
 -1        85-7.75059E+00 9.99766E+00 9.28610E+00 8.51437E+00 1.67806E+02 1.80951E-01
 -1        86 3.28001E+00 1.38254E+01 7.10983E-01 1.22899E+01 1.04703E+02-1.72531E+00
 -1        87-1.02309E+01 1.22970E+01 1.19595E+01-1.04343E+00 5.24968E+01-9.95418E-01
 -1        88 3.16658E+00 1.10973E+00 1.26474E+01-1.79723E+00 1.04684E+02 1.20933E+01
 -1        89-3.15511E+00 3.14697E+00 3.37529E+00-3.18978E+00 2.07517E+02-2.87067E+00
 -1        90-7.89433E+00 8.46598E+00 8.85044E+00-2.38066E-01 1.68442E+02 8.58543E+00
 -1        91 1.87436E+00-1.69462E+01-4.54089E+00-5.95009E+00 1.08229E+02-2.43678E+00
 -1        92 1.56475E+01-1.44112E+01-1.27510E+01 5.58102E-01 6.24007E+01 5.23766E-01
 -1        93-2.67908E+00 7.62857E+00-3.88923E+00 1.38194E+01 1.91664E+02-9.13797E+00
 -1        94 1.18410E+00-1.49096E+00-1.38066E+01 5.19968E+00 1.10000E+02 6.02744E+00
 -1        95 2.73275E+00 4.49870E+00 1.71872E-01 2.91492E+00-5.37398E+00 5.98038E+01
 -1        96 5.28850E+01-8.18328E+00-3.01626E+01-1.39401E+00-1.33188E+01 4.24859E+01
 -1        97-6.70554E+01-1.29210E+00 4.58389E+01-5.49529E+00-3.28241E+00 4.15985E+01
 -1        98-7.91494E+01-1.83980E+00 1.78359E+00 1.53702E-01-1.05355E+01 2.88277E+01
 -1        99 7.88382E+01-1.40392E+00-5.02048E+00-2.80318E+00-1.10339E+01 2.82824E+01
 -1       100-8.35667E+01-9.90695E-01 1.62836E+00 6.72663E+00-3.10152E+00 2.10993E+01
 -1       101-3.57083E+01 5.52323E-01 6.85421E-01 2.83889E+00-2.67922E+00 2.31334E+01
 -1       102-1.13078E+00 2.74877E+00 1.07690E+00 1.76571E+00-5.74383E+00 3.27207E+01
 -1       103-4.51314E+01 3.41200E+00 5.94703E+00 1.08808E+00-9.53871E+00 4.01549E+01
 -1       104 4.22161E+01 2.30335E+00-5.45623E+00 8.39411E-01-6.58720E+00 4.37360E+01
 -1       105 3.87370E+01-2.62840E+00-1.23109E+00-3.22060E+00-5.74481E+00 2.32763E+01
 -1       106 8.54005E+01-1.81137E-01-3.27127E+00-7.33821E+00-3.70982E+00 1.86632E+01
 -1       107 3.15895E+01 2.89105E+00-2.07996E+01 2.88956E+00-6.68394E+00 7.21548E+01
 -1       108 1.18764E+02 7.73593E-01-2.17710E+01 1.14689E+00-3.10074E+00 3.14845E+01
 -1       109 9.06686E+01 5.41829E+00-7.51268E+00 1.61254E+00-3.43028E+00 3.83463E+01
 -1       110 6.61088E-01 5.54167E-01-6.16311E+00 4.03586E+00 2.86416E+01 6.31358E+01
 -1       111 2.13559E+01-4.13737E+00-3.04527E+01 9.11691E-01 2.47779E+01 3.98434E+01
 -1       112 4.03734E+01-9.92792E+00-3.25123E+01 2.03625E+00-9.06510E+00 1.83256E+01
 -1       113-3.70360E+01-1.15899E+00 2.30272E+01-8.14258E-01-4.90874E+00 6.55999E+01
 -1       114-2.63120E+01 3.40334E+00 3.32060E+01-4.55962E+00 3.02016E+01 4.08137E+01
 -1       115-8.28260E+01 2.65735E+00 7.63313E+00 7.63802E+00-8.22066E+00 4.13465E+01
 -1       116-1.16858E+02-8.12088E-02 2.66273E+01 2.67253E+00-7.16660E+00 3.06420E+01
 -1       117-5.05216E+01 5.16463E+00 3.85948E+01-4.95861E+00-7.18085E+00 1.68941E+01
 -1       118-1.16599E+02 1.53679E+00 2.43687E+00 7.60107E+00-7.40379E+00 2.14743E+01
 -1       119 1.19445E+02-1.59713E+00-5.05384E+00-4.15528E+00-6.31578E+00 1.68690E+01
 -1       120 7.42739E+00 2.91042E-01 1.59448E+00-4.55094E+00-1.48713E+01-5.55825E+01
 -1       121 5.71497E+01-4.72062E+00-2.70238E+01-4.66343E+00 2.67261E+00-3.66184E+01
 -1       122 7.02811E+01-6.92190E-01-2.98545E+00 3.42720E+00-7.86079E+00-3.27458E+01
 -1       123-6.04003E+01 5.77575E+00 2.53893E+01 3.10360E+00 1.71614E+00-3.58611E+01
 -1       124-7.85451E+01 1.61961E+00 1.32741E+00-3.20204E+00-6.56755E+00-2.88005E+01
 -1       125-1.14142E+02-2.95839E+00 1.70751E+01 2.53965E+00 1.64923E+00-2.32627E+01
 -1       126-3.45199E+01 2.96686E+00 1.20431E+01 1.49288E+00-1.14508E+01-5.05051E+01
 -1       127-8.50825E+01 2.21420E+00 1.17385E+01-2.26240E+00-2.30437E+00-4.04511E+01
 -1       128-4.44551E+01 9.22559E+00 2.62087E+01 3.28029E+00-6.94717E+00-1.72868E+01
 -1       129-1.20799E+02 3.77499E+00 1.46520E+00-5.69595E+00-1.71037E+00-2.18308E+01
 -1       130-4.18243E+01-5.86033E-01 9.14680E+00 2.82966E-01-7.14005E+00-4.73633E+01
 -1       131-8.35876E+01-5.66199E-01-9.88829E-01-8.15363E+00-2.78320E+00-2.03890E+01
 -1       132 1.20599E+02 3.32746E+00-1.80703E+01-2.75189E+00 1.82902E+00-2.12217E+01
 -1       133 9.27803E+01 8.00278E-02-1.11045E+01 9.10268E-01-3.98800E+00-3.53260E+01
 -1       134 3.11614E+01-2.34209E+00-6.78451E+00-5.11243E+00-7.85175E+00-4.73450E+01
 -1       135 4.00492E+01-6.23796E+00-2.79417E+01-4.68000E+00-7.20526E+00-2.10735E+01
 -1       136 1.99942E+01-6.83624E+00-4.12102E+01-1.46429E+00 2.50959E+01-4.92968E+01
 -1       137-2.64343E+00 1.11253E+00-9.83761E-01 3.84212E-01 9.63638E+00-6.25208E+01
 -1       138 3.20333E+01-8.87550E-01-1.02066E+00 4.79597E+00-5.14580E+00-2.74300E+01
 -1       139-6.76655E-02-1.17502E+00 3.02175E+00 2.82430E+00-4.79504E+00-3.98628E+01
 -1       140 4.28627E+01-2.89001E+00-5.02482E+00 2.86158E+00-6.59933E+00-4.76475E+01
 -1       141 8.25349E+01 1.09100E+00-1.11718E+00 5.64519E+00-3.12341E+00-2.12411E+01
 -1       142 1.18182E+02-1.92268E-01-5.60032E+00 1.60842E+00-1.97026E+00-2.04350E+01
 -1       143-2.57942E+01 8.92423E+00 4.04268E+01 3.87848E+00 2.37492E+01-4.67902E+01
 -1       144-3.94102E+01 1.17954E+00 1.92697E+00-1.95461E+00-3.68253E+00-2.25503E+01
 -1       145 1.16754E+00-9.88666E-01 3.62935E+00 5.87706E+01-5.78452E+00 2.41594E+00
 -1       146 8.05628E+01-5.64159E+00-1.65576E+00 2.84973E+01-1.08590E+01-2.98562E+00
 -1       147 5.36856E+01-2.99160E+01-8.49715E+00 4.22804E+01-1.30015E+01-1.24057E+00
 -1       148-6.65044E+01 4.54892E+01-1.42274E+00 4.16155E+01-3.38499E+00-5.84529E+00
 -1       149-7.65854E+01 2.60628E+00-1.47080E+00 2.83341E+01-3.73589E+00-1.68956E+00
 -1       150-3.55319E+01 2.20520E+00-1.26579E-01 2.25891E+01-2.52470E+00 6.99952E-01
 -1       151-8.15179E+01-5.05719E-01-2.71834E+00 2.01151E+01-2.54845E+00 5.39545E+00
 -1       152-1.05295E+00-5.07820E-01 1.97356E+00 3.24724E+01-6.65234E+00 1.96387E+00
 -1       153 3.72152E+01-1.78461E+00-2.33145E+00 2.40264E+01-5.56499E+00-3.26479E+00
 -1       154 4.36718E+01-6.49398E+00 2.29400E+00 4.32949E+01-6.75102E+00 9.20449E-01
 -1       155-4.38505E+01 3.75343E+00 7.48290E-01 4.19432E+01-3.67204E+00 4.27914E-01
 -1       156 8.44109E+01-3.14015E+00 1.58953E-01 1.90333E+01-3.83063E+00-7.23005E+00
 -1       157-1.22682E+02 4.64185E+00 1.44214E+00 2.21555E+01 1.93832E-01 1.14794E+00
 -1       158 1.20186E+02-4.77844E+00-1.07689E+00 1.60740E+01-6.68384E+00-4.29205E+00
 -1       159 9.14058E+01-8.10456E+00 5.13262E+00 3.84591E+01-3.48616E+00 1.87842E+00
 -1       160 1.19335E+02-2.17659E+01 6.51883E-01 3.13528E+01-3.07981E+00 1.04666E+00
 -1       161 3.30794E+01-2.09608E+01 2.85213E+00 7.19277E+01-6.70989E+00 3.24850E+00
 -1       162 4.08072E+01-3.21942E+01-9.89460E+00 1.81517E+01-9.03876E+00 2.17846E+00
 -1       163 2.18595E+01-2.95439E+01-4.60918E+00 3.98126E+01 2.49983E+01 1.01671E+00
 -1       164 1.77627E+00-5.70834E+00 3.76025E-01 6.31497E+01 2.82505E+01 4.35580E+00
 -1       165-2.59145E+01 3.35293E+01 3.52017E+00 4.10538E+01 3.01878E+01-4.69898E+00
 -1       166-3.59628E+01 2.21390E+01-1.58302E+00 6.50232E+01-6.00599E+00-1.01356E+00
 -1       167-1.16738E+02 2.59669E+01 1.77158E-01 3.01577E+01-7.20666E+00 2.57503E+00
 -1       168-8.35990E+01 6.63245E+00 2.23593E+00 3.78768E+01-5.21368E+00 5.18551E+00
 -1       169-5.02279E+01 3.84862E+01 5.06939E+00 1.68696E+01-7.25264E+00-5.12000E+00
 -1       170 3.77683E+00 3.59048E+00-2.09585E+00-5.76452E+01-1.54145E+01-1.81513E+00
 -1       171-5.41584E+01 3.35848E+01 3.83442E+00-5.01248E+01-7.17911E+00 3.18084E+00
 -1       172 5.68058E+01-2.66800E+01-5.28294E+00-3.61465E+01 1.80382E+00-4.05539E+00
 -1       173-7.89227E+01 3.79385E+00 1.76418E+00-2.77182E+01-6.75306E+00-2.72210E+00
 -1       174 7.67422E+01-3.81239E+00 1.44119E+00-3.01035E+01-3.81100E+00-1.11736E+00
 -1       175-1.21831E+02 4.09363E+00 4.16344E+00-1.91788E+01-2.62460E+00-6.60389E+00
 -1       176-8.36802E+01-2.90447E-01-1.85688E-01-1.93072E+01-2.85038E+00-8.16888E+00
 -1       177-4.05024E+01 1.29606E+01-1.29979E+00-4.81275E+01-5.01244E+00 8.25706E-01
 -1       178-9.12235E+01 1.61157E+01-2.37575E+00-3.68871E+01-5.13802E+00 1.47068E+00
 -1       179-1.11463E+02 1.81376E+01-1.95871E-01-2.88628E+01-4.15088E+00-2.83687E+00
 -1       180-4.20479E+01 3.36295E+01 8.47726E+00-2.41822E+01-5.95508E+00 3.86589E+00
 -1       181-3.36609E+01 2.40679E+01-2.82759E+00-6.00579E+01-1.64541E+01 4.94098E+00
 -1       182 1.20535E+02-1.81505E+01 3.29562E+00-2.07794E+01 1.62182E+00-2.66107E+00
 -1       183 2.96888E+01-6.71549E+00-3.10553E+00-4.62353E+01-9.38122E+00-4.06051E+00
 -1       184 9.32685E+01-1.15596E+01 8.49484E-01-3.40660E+01-4.51972E+00 2.71430E-01
 -1       185 3.94966E+01-2.80606E+01-6.41373E+00-2.10244E+01-7.56404E+00-4.57711E+00
 -1       186 2.01996E+01-4.06305E+01-6.23513E+00-4.83645E+01 2.50179E+01-1.17000E+00
 -1       187-2.92438E+00 4.42206E+00 1.99966E+00-6.27995E+01 7.84872E+00 5.02776E-01
 -1       188-3.98494E+01 3.26354E+00 1.39117E+00-2.22288E+01-4.07604E+00-7.31741E-01
 -1       189 2.32825E+00 1.52612E+00-1.63845E+00-3.89818E+01-4.88623E+00 4.40583E+00
 -1       190 1.20303E+02-4.39285E+00 3.42396E-02-2.11968E+01-9.74597E-01 1.50205E+00
 -1       191 4.67265E+01-8.34496E+00 2.20652E-01-4.59947E+01-3.12853E+00 8.20495E-01
 -1       192 8.19375E+01 6.55244E-02 2.63402E+00-2.12194E+01-2.29624E+00 4.95969E+00
 -1       193 3.47605E+01-1.65643E+00-4.37382E-01-2.38694E+01-2.71860E+00 1.29248E+00
 -1       194-2.12527E+01 2.58331E+01 5.16499E+00-5.05924E+01 1.88865E+01-7.47562E-01
 -1       195-1.33011E+01-1.74952E-01 1.67402E+00-1.27280E+01-1.65900E+01-1.28388E+01
 -1       196-4.78880E+00-1.07843E+00-1.98296E+00 4.91376E+00 4.22990E+01 4.86365E+00
 -1       197-6.18652E+01-3.14294E-02 3.01840E+00 6.08640E+00-9.72760E+00 2.04843E+01
 -1       198-2.89614E+01 1.69011E+00 4.75012E+00 4.50713E+00-1.05795E+01 2.64291E+01
 -1       199-4.03187E+01-1.55525E+00-2.01468E+00 6.45579E+00 3.43120E+00 2.24706E+01
 -1       200-5.98775E+00 8.70957E-01 3.08187E+00 2.49971E+00 1.46945E+01 3.31550E+01
 -1       201-2.36689E+01-8.80028E-01-4.03347E+00 1.23734E+01-1.52548E+00 1.27768E+01
 -1       202 4.86666E+01-6.81302E+00-9.73516E+00 2.82619E+01 5.67118E+00-1.14640E+01
 -1       203 6.06874E+01-1.22716E+01-1.52778E+01 1.54746E+01 7.56886E-01-1.35123E+01
 -1       204 2.43086E+01-5.87057E-01-6.99793E+00-4.03805E+00 3.45483E+01-7.53950E+00
 -1       205 1.78298E+01-9.99267E+00-1.03825E+00 1.65482E+01 2.49274E+01-5.35285E-01
 -1       206-6.85346E+00 3.05675E+00 8.09598E-01 3.19369E+01 1.34898E+01 2.16503E+00
 -1       207 2.04284E+01-7.28379E+00-8.74262E+00 7.86125E-01 1.12269E+02-1.06371E+01
 -1       208 2.91777E+01-9.57690E+00-2.00663E+01 1.49208E+00 6.14381E+01-1.77117E+01
 -1       209-1.85602E+01 6.88323E+00 8.19589E+00-3.26299E+01 4.32354E+01-1.06534E+00
 -1       210-3.42217E+01 1.95544E+01 1.20863E+01-2.04159E+01 5.33883E+01-7.77581E-01
 -1       211 2.16407E+01-7.71638E+00-9.58537E+00-1.13238E+01 1.12862E+02 1.89144E+00
 -1       212 2.88175E+01-1.98657E+01-1.04334E+01-1.79263E+01 6.12000E+01 2.02845E+00
 -1       213 5.88924E+01-6.30397E+00-1.16146E+00-2.80867E+01-9.27036E+00 1.08639E+01
 -1       214 8.39090E+01-1.75918E+00-1.90914E+00-1.39207E+01-7.03387E+00 1.10337E+01
 -1       215-6.27682E+01 3.07249E+00 1.12503E+00 2.16927E+01-4.53633E+00 5.29084E+00
 -1       216-2.99748E+01 3.29285E+00 1.67958E+00 2.94650E+01-1.01255E+01 5.44637E+00
 -1       217-2.60630E+01 9.28113E+00 9.11217E+00 3.04829E+00 1.04330E+02-1.18190E+01
 -1       218-3.72643E+01 9.99957E+00 2.11455E+01 1.50575E+00 5.99690E+01-1.40006E+01
 -1       219-3.69340E+00-1.72054E-01 4.37708E+00 2.44261E-01 8.46694E+01-2.03318E+01
 -1       220 2.58395E+00 6.66914E-01 1.98765E+00-1.10452E+00 1.54859E+01-1.41846E+01
 -1       221 9.30513E-02-2.22176E+00-2.32703E+00 2.38805E+00 1.35314E+02 3.10378E+00
 -1       222-4.34666E+00 3.59092E+00-1.69239E+00-2.11434E+01 8.65516E+01 1.68412E+00
 -1       223 2.44987E+01-6.70261E+00-1.11258E+00-7.25351E+00 3.42607E+01-4.03039E+00
 -1       224 2.41012E+00 2.39385E+00-2.34128E-01-1.31043E+01 1.53708E+01-9.06154E-01
 -1       225 2.84087E+01-2.27345E+00-2.60683E+00-1.89872E+01-3.41918E+00 2.15493E+01
 -1       226 2.56939E+01-1.84101E+00 3.92679E+00-1.17310E+01-1.26793E+01 1.19537E+01
 -1       227-3.13753E+00 1.24147E+00 2.86954E+00-5.60182E+00-3.86298E+00 2.07350E+01
 -1       228-5.34740E+00 2.85113E+00-2.92892E-01-3.20259E+01-1.05085E+01-7.28284E+00
 -1       229 2.43524E-01-8.72367E-02 2.40695E+00 2.45825E+01-1.27363E+01 1.47449E+00
 -1       230-1.24308E-01-1.06789E+00-1.50269E+00 7.12556E+00-2.53988E+00 6.76713E+00
 -1       231-2.88623E+01-1.05254E+00 4.56484E+00-5.84866E+00-2.73692E+00-2.33025E+01
 -1       232-3.99607E+00 3.09412E+00 1.03017E+01-3.61227E+00 7.66011E+01-4.06494E+00
 -1       233-8.42418E+00 2.75925E-01 1.22169E+00-7.67565E+00-1.19425E+01-3.33279E+01
 -1       234-6.74305E-02 2.43146E+00 1.38430E-01 1.66799E+00-1.22864E+01 2.52466E+01
 -1       235 2.79649E+01-2.35653E+00-1.80103E+00 2.16461E+01-3.04511E+00-1.96757E+01
 -1       236-2.65849E+00 1.49688E+00 1.99520E+00 2.10602E+01-3.84640E+00-5.79997E+00
 -1       237-2.49638E+00-3.13392E+00-2.36518E+00-5.60723E+00-1.65008E+01-4.21278E+00
 -1       238-1.16566E+00-2.89408E+00-2.32005E+00-2.61991E+00 1.73459E+01-3.52300E+00
 -1       239-3.06096E+01 2.68943E+01 4.60072E+00 1.46590E+01 5.35548E+01-5.51471E-01
 -1       240-4.59662E+00 2.30478E+00 3.09715E+00 1.74752E+01 6.06105E+01 2.44594E+00
 -1       241-5.03519E+00-3.20189E+00-3.93257E+00 6.73586E+00 8.90027E+01 6.60961E+00
 -1       242-3.19939E+01 1.99858E+01-1.67719E+00 2.30101E+01 2.08587E+01-1.28041E+00
 -1       243-3.08364E+01 4.88501E+00 2.65973E+01-3.88853E-01 5.35547E+01 1.45527E+01
 -1       244-4.76204E+00 3.35581E+00 1.49553E+00 2.41888E+00 6.06737E+01 1.71843E+01
 -1       245-3.22870E+01-1.19270E+00 1.95970E+01-8.41659E-01 2.10970E+01 2.25917E+01
 -1       246-7.01560E+01 1.67408E+01 1.66785E+01 1.50393E+01 1.25467E+00 1.49414E+01
 -1       247-6.94035E+01 2.65898E+00 2.48763E+00 9.28984E+00 1.06691E+01 8.75043E+00
 -1       248-8.10766E+01 1.46314E+00 6.28633E-01-1.58117E+01-5.14231E+00-1.62114E+01
 -1       249-4.55476E+01 2.38024E+00 2.83231E+00-8.14359E+00-1.43604E+01-2.30399E+01
 -1       250-4.57110E+01 3.84236E+00 2.98521E+00-2.27289E+01-1.45062E+01-7.85337E+00
 -1       251-7.52310E+01 3.98837E+00 3.70977E+00-1.28752E+01-9.61244E+00-1.28270E+01
 -1       252-5.94381E+01 1.82111E+00 1.19894E+00-9.16888E+00-5.13680E+00-2.22499E+01
 -1       253-1.30057E+01 9.80881E-01-4.51601E-02-3.73042E+00-1.13462E+01-2.17390E+01
 -1       254-2.76466E+01 1.17637E+00 1.88634E+00-1.42474E+01-1.55926E+01-1.39855E+01
 -1       255-5.95618E+01 2.11960E+00 1.77508E+00-2.19899E+01-5.24883E+00-8.75476E+00
 -1       256-1.33136E+01-8.95352E-01 1.73717E+00-2.08205E+01-1.26057E+01-2.37568E+00
 -1       257 1.81838E+01-4.88663E-01-2.84479E+00 9.68826E-01-1.25076E+01-2.68645E+01
 -1       258 1.74122E+01-7.06203E-01-1.02560E+01-7.48706E-01 2.50102E+01 1.63013E+01
 -1       259 1.27020E+01-1.55408E+00 1.37161E+00-1.60952E+01-1.31032E+01 2.42666E+00
 -1       260 6.04184E+01-1.54253E+00-1.86198E+00 6.94094E+00-5.39813E+00-2.26620E+01
 -1       261 6.12386E+01-3.80315E+00-2.55051E+00 2.16600E+01-5.81593E+00-8.07672E+00
 -1       262 3.06469E+01-1.43460E+01-1.19623E+01 1.54090E+01 5.48745E+01-1.66014E+00
 -1       263 6.04574E+01-1.50151E+01-1.26830E+01-1.33151E+01 1.93839E-01 1.58256E+01
 -1       264 6.20992E+01-2.43148E+00-7.96283E-01-2.21508E+01-4.55610E+00 4.95968E+00
 -1       265-8.22479E+01-1.34962E-01 3.47855E-01 1.28363E+01-6.64383E+00 1.18879E+01
 -1       266 6.11192E+01-1.86439E+00-4.63154E+00-8.34412E+00-8.21984E+00 2.11880E+01
 -1       267-6.10630E+01 1.36599E+01 1.17686E+01-1.90814E+01 4.77119E+00-1.04267E+01
 -1       268 8.03266E+01-2.43800E+00-2.13949E+00 1.39636E+01-8.58952E+00-1.72500E+01
 -1       269 3.03021E+01-1.18302E+01-1.50232E+01-1.92455E+00 5.48807E+01 1.57372E+01
 -1       270 1.95641E+01-4.28338E+00-3.17661E+00 1.39031E+01 1.05626E+02-1.91074E-01
 -1       271 2.93032E+01-4.83393E+00-2.12115E+00 1.66599E+01-1.07934E+01-3.50003E+00
 -1       272 2.68149E+01-1.22787E-01-1.38651E+00 1.25492E+01-1.24312E+01-1.06823E+01
 -1       273-5.08743E+01-2.49486E-02-3.39169E-01 2.53787E+01-8.73295E+00 1.16735E+01
 -1       274 4.81469E+01-9.67111E+00-6.93996E+00-1.14765E+01 5.34460E+00 2.84662E+01
 -1       275 1.90474E+01-3.39011E+00-5.47713E+00-8.26462E-01 1.06451E+02 1.42852E+01
 -1       276 3.06565E+01-1.16666E+00-5.79463E+00-3.49072E+00-1.05444E+01 1.53736E+01
 -1       277-4.23285E+01 5.63418E+00 4.89779E+00-2.78534E+01-9.05193E-01-1.15873E+01
 -1       278 6.37963E+01-1.76268E+00-5.85221E+00 8.97553E+00-9.05561E+00-2.93165E+01
 -1       279 3.16843E+01-1.28677E+00-1.70260E+00-3.63407E+01-8.17047E+00 6.79018E+00
 -1       280 2.48988E+01-1.57590E+00 3.95182E-01 4.12490E+00-8.31465E+00-1.89156E+01
 -3
    1PSTEP                        22           1           1          
    1PGM                1.000000E+00                                  
    1PGK                2.097642E+12                                  
    1PHID                         -1                                  
    1PSUBC                         0                                  
    1PMODE                         8                                  
  100CL  108 2.30508E+05         280                     2    8MODAL      1
 -4  DISP        4    1
 -5  D1          1    2    1    0
 -5  D2          1    2    2    0
 -5  D3          1    2    3    0
 -5  ALL         1    2    0    0    1ALL
 -1         1 0.00000E+00 0.00000E+00 0.00000E+00
 -1         2 0.00000E+00 0.00000E+00 0.00000E+00
 -1         3 0.00000E+00 0.00000E+00 0.00000E+00
 -1         4 0.00000E+00 0.00000E+00 0.00000E+00
 -1         5 1.53493E+02-3.37776E+02 9.00758E+02
 -1         6 2.06047E+01-1.03179E+03-1.31572E+03
 -1         7-1.57520E+02-1.00670E+03-1.38493E+03
 -1         8-1.76524E+02-2.90777E+02 9.61250E+02
 -1         9 0.00000E+00 0.00000E+00 0.00000E+00
 -1        10 0.00000E+00 0.00000E+00 0.00000E+00
 -1        11 0.00000E+00 0.00000E+00 0.00000E+00
 -1        12 0.00000E+00 0.00000E+00 0.00000E+00
 -1        13 0.00000E+00 0.00000E+00 0.00000E+00
 -1        14 0.00000E+00 0.00000E+00 0.00000E+00
 -1        15 0.00000E+00 0.00000E+00 0.00000E+00
 -1        16 0.00000E+00 0.00000E+00 0.00000E+00
 -1        17 0.00000E+00 0.00000E+00 0.00000E+00
 -1        18 0.00000E+00 0.00000E+00 0.00000E+00
 -1        19 0.00000E+00 0.00000E+00 0.00000E+00
 -1        20 0.00000E+00 0.00000E+00 0.00000E+00
 -1        21-6.71291E+01 4.06367E+02-1.64870E+02
 -1        22 1.31966E+01 1.82748E+02 6.18472E+02
 -1        23-5.71786E+01-1.09544E+02-9.58370E+02
 -1        24-2.83167E+01-5.17796E+02 1.13293E+02
 -1        25 7.52208E+01-3.10593E+02 4.70808E+02
 -1        26-1.19110E+02-7.90568E+02-4.95324E+02
 -1        27 8.04545E+01 4.23063E+02-1.57731E+02
 -1        28 1.23479E+01-8.56829E+01-1.01164E+03
 -1        29-1.05144E+01 2.24877E+02 6.64240E+02
 -1        30 9.86090E+00-4.83115E+02 1.76307E+02
 -1        31 5.25789E+01-8.09349E+02-4.27656E+02
 -1        32-8.86935E+01-2.72989E+02 5.25576E+02
 -1        33 1.40898E+02-2.38545E+02 5.50141E+02
 -1        34 1.12140E+02-1.17120E+02 2.56096E+02
 -1        35 1.30730E+02-2.96672E+02 7.41335E+02
 -1        36 6.79785E+01-6.09672E+02-8.29249E+02
 -1        37 7.07844E+01-3.22742E+02-4.13067E+02
 -1        38 2.93561E+01-8.39484E+02-1.12147E+03
 -1        39-9.63113E+01-6.35736E+02-7.96007E+02
 -1        40-6.01817E+01-3.25844E+02-3.95469E+02
 -1        41-1.24052E+02-8.61141E+02-1.10744E+03
 -1        42-1.72863E+02-2.11315E+02 6.04897E+02
 -1        43-1.36249E+02-1.18327E+02 2.76798E+02
 -1        44-1.47576E+02-2.46697E+02 7.79303E+02
 -1        45 0.00000E+00 0.00000E+00 0.00000E+00
 -1        46 0.00000E+00 0.00000E+00 0.00000E+00
 -1        47 0.00000E+00 0.00000E+00 0.00000E+00
 -1        48 0.00000E+00 0.00000E+00 0.00000E+00
 -1        49 0.00000E+00 0.00000E+00 0.00000E+00
 -1        50 0.00000E+00 0.00000E+00 0.00000E+00
 -1        51 0.00000E+00 0.00000E+00 0.00000E+00
 -1        52 0.00000E+00 0.00000E+00 0.00000E+00
 -1        53 0.00000E+00 0.00000E+00 0.00000E+00
 -1        54 0.00000E+00 0.00000E+00 0.00000E+00
 -1        55 0.00000E+00 0.00000E+00 0.00000E+00
 -1        56 0.00000E+00 0.00000E+00 0.00000E+00
 -1        57 0.00000E+00 0.00000E+00 0.00000E+00
 -1        58 0.00000E+00 0.00000E+00 0.00000E+00
 -1        59 0.00000E+00 0.00000E+00 0.00000E+00
 -1        60 0.00000E+00 0.00000E+00 0.00000E+00
 -1        61 0.00000E+00 0.00000E+00 0.00000E+00
 -1        62 0.00000E+00 0.00000E+00 0.00000E+00
 -1        63 0.00000E+00 0.00000E+00 0.00000E+00
 -1        64 0.00000E+00 0.00000E+00 0.00000E+00
 -1        65 0.00000E+00 0.00000E+00 0.00000E+00
 -1        66 0.00000E+00 0.00000E+00 0.00000E+00
 -1        67 0.00000E+00 0.00000E+00 0.00000E+00
 -1        68 0.00000E+00 0.00000E+00 0.00000E+00
 -1        69 0.00000E+00 0.00000E+00 0.00000E+00
 -1        70 2.38063E+01 3.82239E+02 1.29526E+02
 -1        71-7.69180E+00-7.01601E+01-3.10007E+02
 -1        72 1.55894E+01 1.70026E+02 3.91344E+02
 -1        73-2.04334E-01-5.49206E+01-3.58341E+02
 -1        74-6.85954E+00 1.42706E+02 3.38690E+02
 -1        75-5.14188E+00-1.31001E+02 3.34064E+02
 -1        76-6.73145E+01-2.65869E+01 6.61915E+02
 -1        77 6.07654E+01 3.69399E+02 2.51494E+02
 -1        78 2.51898E+01 2.10349E+01 1.37262E+02
 -1        79 4.77347E+01 3.00405E+02 2.04411E+02
 -1        80 7.63380E+01 3.91782E+02 5.93057E+00
 -1        81-3.94849E+01-3.25965E+02-1.45844E+02
 -1        82-6.69603E+01-4.86120E+02-8.38137E+02
 -1        83 6.10917E+01 2.32273E+02-3.99330E+02
 -1        84 3.04891E+01 2.33004E+02-2.90108E+01
 -1        85-5.55793E+00 3.04883E+01 9.13877E+01
 -1        86 3.58564E+00-1.60592E+02 2.82589E+02
 -1        87 5.89134E+01-7.14623E+01 6.05049E+02
 -1        88-3.83642E+01 3.47979E+02 2.00978E+02
 -1        89-1.12992E+01 2.81207E+02 1.67899E+02
 -1        90-4.06589E+01 3.56438E+02 1.19867E+01
 -1        91 2.61826E+01-3.31167E+02-8.35376E+01
 -1        92 6.51992E+00-5.05163E+02-7.75298E+02
 -1        93-4.22859E+00 2.24018E+02-2.29774E+00
 -1        94-5.35145E+01 2.08930E+02-3.68513E+02
 -1        95-5.97825E+01 3.06832E+02-1.41564E+02
 -1        96-4.91436E+01-6.64540E+01-8.52084E+02
 -1        97 6.88520E+00 1.63984E+02 5.21005E+02
 -1        98-6.57864E-01 6.99952E+01 1.68338E+02
 -1        99-4.15195E+01-8.33064E+00-3.19181E+02
 -1       100 1.22994E+01-1.06882E+01 1.08073E+02
 -1       101 5.24297E+00 6.32431E+01 3.53987E+01
 -1       102-2.47669E+01 1.47823E+02-7.39172E+01
 -1       103-2.48034E+01 1.94003E+02 7.89295E+01
 -1       104-5.80140E+01 1.44195E+02-2.87653E+02
 -1       105-2.20211E+01 4.42601E+01-1.15424E+02
 -1       106-3.13140E+01-7.10604E+01-1.87710E+02
 -1       107-5.61634E+01 1.96108E+02-4.88057E+02
 -1       108-1.87403E+01-3.83464E+02-9.13953E+02
 -1       109-5.38386E+01-6.33182E+01-6.10883E+02
 -1       110-5.02911E+01 3.53736E+02-1.56214E+02
 -1       111-6.75774E+01 2.39859E+02-5.61948E+02
 -1       112-2.76545E+01-4.97906E+02-1.14943E+03
 -1       113-2.97019E+01 2.93925E+02 1.93515E+02
 -1       114-3.39395E+01 3.50318E+02 2.39931E+02
 -1       115 9.03447E+00 1.27027E+02 3.49359E+02
 -1       116 6.11464E+01-5.79632E+01 5.98400E+02
 -1       117 7.11519E+01-7.51789E+01 7.61680E+02
 -1       118 5.41715E+01-4.49002E+01 3.67829E+02
 -1       119-1.19105E+01-2.46846E+02-5.87244E+02
 -1       120 6.52001E+01 3.11582E+02-1.45430E+02
 -1       121 2.02887E+01-9.04350E+01-8.53542E+02
 -1       122 3.42576E+01-2.44923E+01-2.83619E+02
 -1       123-9.67994E+00 2.06884E+02 5.29583E+02
 -1       124-1.49830E+01 6.44099E+01 1.99887E+02
 -1       125-8.07622E+01-2.20361E+01 6.29099E+02
 -1       126 3.97206E+01 3.22327E+02 1.86560E+02
 -1       127-1.13304E+01 1.47131E+02 3.76937E+02
 -1       128-8.27494E+01-3.07747E+01 8.03483E+02
 -1       129-6.89577E+01-3.00802E+01 4.04345E+02
 -1       130 2.08681E+01 2.04961E+02 1.19646E+02
 -1       131-2.14474E+01-1.60586E+01 1.17643E+02
 -1       132-2.38500E+01-4.20043E+02-8.88485E+02
 -1       133 4.39296E+01-9.04389E+01-5.83377E+02
 -1       134 6.14094E+01 1.88452E+02-4.84515E+02
 -1       135-5.22857E+01-5.01390E+02-1.17550E+03
 -1       136 5.93536E+01 2.35209E+02-5.72290E+02
 -1       137 6.79576E+01 3.63308E+02-1.45996E+02
 -1       138 2.37788E+01 3.98353E+01-1.00066E+02
 -1       139 1.93579E+01 1.39801E+02-5.19174E+01
 -1       140 5.04200E+01 1.24226E+02-2.67387E+02
 -1       141 3.30818E+01-7.62535E+01-1.75341E+02
 -1       142 1.41188E+01-2.55421E+02-5.52196E+02
 -1       143 4.67141E+01 3.77841E+02 2.52488E+02
 -1       144-7.97397E-01 6.43026E+01 5.32117E+01
 -1       145-3.87836E+01-3.70535E+02 1.19625E+02
 -1       146-8.97912E+01-3.07689E+02-1.14055E+02
 -1       147-1.14180E+02-7.61747E+02-4.02492E+02
 -1       148 8.50674E+01-3.05441E+02 3.80223E+02
 -1       149 7.49324E+01-1.14765E+02 1.30305E+02
 -1       150 2.62062E+01-6.89752E+01 4.16606E+01
 -1       151 7.39399E+01-5.72657E+01 7.80182E+01
 -1       152-1.54276E+01-1.87825E+02 6.00419E+01
 -1       153-3.97852E+01-1.31437E+02-5.98774E+00
 -1       154-7.26247E+01-3.56850E+02-1.84898E+01
 -1       155 2.90874E+01-2.15101E+02 1.43178E+02
 -1       156-7.94775E+01-1.61333E+02-1.05100E+02
 -1       157 1.26823E+02-1.66095E+02 2.86904E+02
 -1       158-1.19112E+02-4.69365E+02-3.88374E+02
 -1       159-1.16673E+02-5.39440E+02-2.67562E+02
 -1       160-1.33559E+02-7.23138E+02-6.33904E+02
 -1       161-7.43427E+01-5.61331E+02-8.41666E+01
 -1       162-1.48362E+02-9.06771E+02-8.21419E+02
 -1       163-7.54143E+01-6.55552E+02-1.26008E+02
 -1       164-2.38426E+01-4.67269E+02 1.12630E+02
 -1       165 2.77320E+01-3.92151E+02 2.79615E+02
 -1       166 3.18818E+01-3.16541E+02 2.23608E+02
 -1       167 1.22889E+02-2.62095E+02 4.64178E+02
 -1       168 8.15102E+01-2.45578E+02 2.76396E+02
 -1       169 1.23495E+02-3.14670E+02 6.00222E+02
 -1       170 2.22172E+01-4.00339E+02 1.01798E+02
 -1       171-8.66717E+01-2.68009E+02 4.32564E+02
 -1       172 6.80642E+01-7.58504E+02-4.05589E+02
 -1       173-9.80878E+01-1.15930E+02 1.41265E+02
 -1       174 8.86747E+01-2.67219E+02-1.33185E+02
 -1       175-1.47349E+02-1.63099E+02 3.22541E+02
 -1       176-8.65879E+01-6.04780E+01 8.06750E+01
 -1       177-4.50470E+01-2.13496E+02 1.55145E+02
 -1       178-9.80263E+01-2.44562E+02 3.14079E+02
 -1       179-1.33940E+02-2.23371E+02 5.28842E+02
 -1       180-1.36269E+02-2.70095E+02 6.47934E+02
 -1       181-3.70139E+01-3.19104E+02 2.60541E+02
 -1       182 8.25571E+01-7.03562E+02-6.56585E+02
 -1       183 5.35491E+01-5.69109E+02-9.66889E+01
 -1       184 9.10441E+01-5.27173E+02-2.96476E+02
 -1       185 5.63252E+01-9.08783E+02-7.96071E+02
 -1       186 4.00527E+01-6.39716E+02-8.65301E+01
 -1       187 1.02773E+01-4.59837E+02 1.44179E+02
 -1       188-3.72057E+01-7.01447E+01 4.34267E+01
 -1       189 6.64750E+00-1.88008E+02 4.95788E+01
 -1       190 1.15438E+02-4.44445E+02-4.05225E+02
 -1       191 5.75680E+01-3.44906E+02-5.51502E+01
 -1       192 8.76635E+01-1.52477E+02-1.15257E+02
 -1       193 3.20398E+01-1.13299E+02-1.08946E+01
 -1       194-3.84060E+01-3.48370E+02 3.24206E+02
 -1       195 3.79177E+01 1.85522E+02 1.00868E+02
 -1       196-1.77762E+01 2.51986E+02 1.26742E+02
 -1       197-1.02382E+01 3.22025E+01 5.87042E+01
 -1       198-3.25648E+01 1.33530E+02 4.51322E+01
 -1       199-2.56316E+01 1.61503E+02 1.51501E+02
 -1       200-5.46155E+01 3.04575E+02 3.74995E+01
 -1       201-2.11889E+01 9.76042E+01 9.18552E+01
 -1       202-4.36511E+01-3.41414E+02-3.10056E+02
 -1       203-5.95356E+01-4.48585E+02-6.77232E+02
 -1       204 2.27055E+01 9.60318E+01-9.90584E+01
 -1       205-1.89469E+01-1.26107E+02 2.84489E+01
 -1       206-1.77310E+01-5.03773E+01 1.47074E+02
 -1       207 5.06870E+01 2.26570E+02-1.69451E+02
 -1       208 1.14036E+01-7.39098E+01-6.01114E+02
 -1       209-5.66428E+00-1.24012E+02 2.67206E+02
 -1       210-3.65950E+01-7.89946E+01 4.41666E+02
 -1       211 1.26018E+01-1.48862E+01-4.42967E+01
 -1       212 2.74274E+01-4.08140E+02-3.72708E+02
 -1       213 2.17467E+01-2.01553E+02-2.00152E+02
 -1       214 2.34504E+01-1.60394E+02-2.44426E+02
 -1       215 9.92381E+00-2.68458E+01 5.88000E+01
 -1       216-6.02158E+00-7.04985E+01 8.91800E+01
 -1       217 5.94911E+01 3.34197E+02 2.08243E+02
 -1       218 5.74385E+00 1.99385E+02 4.54201E+02
 -1       219 6.63916E+01 3.44881E+02 2.12359E+01
 -1       220 3.95554E+01 2.31319E+02 9.19008E+00
 -1       221 1.49585E+00 3.35595E+02 1.19480E+02
 -1       222 2.38345E+01 5.44986E+01 1.25416E+02
 -1       223-1.02534E+01 1.02503E+02-9.33456E+01
 -1       224 3.89159E+00 1.22979E+02 3.15302E+01
 -1       225-9.06782E+00-1.42956E+01-1.97468E+02
 -1       226-1.31671E+01 6.11517E+01-6.05645E+01
 -1       227-2.42938E+01 2.03481E+02-5.92435E+00
 -1       228 2.11138E+01-2.59335E+01 1.33157E+02
 -1       229-1.15469E+01 1.07502E+01 4.88031E+01
 -1       230-1.22367E+01 1.49148E+02 5.23867E+01
 -1       231 3.79136E+01 2.16307E+02 2.20824E+02
 -1       232 2.88489E+01 2.82237E+02 1.12316E+02
 -1       233 6.43961E+01 2.64101E+02 4.95574E+01
 -1       234-3.54379E+01 1.36511E+02-1.79043E+00
 -1       235 7.37579E+00-4.33646E+01-1.69503E+02
 -1       236 7.43370E+00 7.26058E+01 3.90976E+01
 -1       237 1.44529E+01 9.94688E+01 4.15145E+01
 -1       238 1.20045E+01 2.40443E+02 8.09047E+01
 -1       239 3.37170E+01-1.05718E+02 3.96435E+02
 -1       240-8.42467E+00-7.03312E+01 1.73465E+02
 -1       241-1.66576E+01 2.08512E+02 2.07251E+02
 -1       242 4.05629E+00-2.01557E+01 2.56713E+02
 -1       243 2.70350E-01 1.62919E+02 4.13654E+02
 -1       244-4.70693E+01 3.58245E+02 6.33798E+01
 -1       245-2.36340E+01 2.26191E+02 2.21769E+02
 -1       246 5.47229E+01-7.78964E+01 4.93295E+02
 -1       247 1.50359E+01 2.43687E+01 2.93625E+02
 -1       248-4.39926E+01-2.92730E+01 1.81258E+02
 -1       249 3.23157E+01 1.29050E+02 1.21865E+02
 -1       250 3.50425E+00-1.86648E+00 1.38694E+02
 -1       251-1.00962E+01 3.76713E+01 2.64369E+02
 -1       252 5.68343E+00 2.34944E+01 6.04930E+01
 -1       253 4.13871E+01 1.02063E+02 2.05573E+01
 -1       254 2.26537E+01 6.37684E+01 5.79062E+01
 -1       255-1.23914E+01-2.29640E+01 5.44402E+01
 -1       256 1.23418E+01-1.64119E+01 4.64959E+01
 -1       257 4.96798E+01 1.30804E+02-5.34081E+01
 -1       258-4.84831E+01 2.75369E+02-1.35554E+02
 -1       259 7.33652E+00 3.96627E+01 1.34219E+01
 -1       260 1.26264E+01-1.14544E+01-8.81985E+01
 -1       261-1.89289E+01-7.85620E+01-4.80456E+01
 -1       262-5.81340E+01-4.07701E+02-4.02060E+02
 -1       263 5.91193E+00-4.19895E+02-6.89025E+02
 -1       264 1.73017E+01-7.18353E+01-5.95524E+01
 -1       265 3.78568E+01-3.22265E+01 1.65458E+02
 -1       266-1.43191E+01-5.25880E+00-1.02114E+02
 -1       267-6.26436E+01-3.86921E+01 5.33293E+02
 -1       268-1.86180E+01-1.62693E+02-2.29503E+02
 -1       269-3.17431E+01-7.40722E+01-5.78165E+02
 -1       270-3.70925E+00-2.04766E+01-7.41519E+01
 -1       271-2.42147E+00 1.12141E+00 8.54879E+00
 -1       272 1.29595E+01 4.41941E+01-3.96915E+01
 -1       273 2.11615E+01-6.44815E+01 1.86965E+02
 -1       274-2.20462E+01-5.62195E+01-4.60516E+02
 -1       275-3.06823E+01 2.14513E+02-1.61344E+02
 -1       276-1.60044E+01 4.55460E+01-2.37490E+01
 -1       277-3.07047E+01-7.47772E+01 3.63945E+02
 -1       278 1.65729E+01-4.28774E+01-2.63099E+02
 -1       279 2.04860E+01-1.13611E+02-2.56188E+01
 -1       280 2.19565E+01 4.68762E+01-1.61683E+01
 -3
    1PSTEP                        23           1           1          
    1PGM                1.000000E+00                                  
    1PGK                2.097642E+12                                  
    1PHID                         -1                                  
    1PSUBC                         0                                  
    1PMODE                         8                                  
  100CL  108 2.30508E+05         280                     2    8MODAL      1
 -4  STRESS      6    1
 -5  SXX         1    4    1    1
 -5  SYY         1    4    2    2
 -5  SZZ         1    4    3    3
 -5  SXY         1    4    1    2
 -5  SYZ         1    4    2    3
 -5  SZX         1    4    3    1
 -1         1 1.11971E+07-2.09950E+03 1.35854E+06-3.03053E+06-9.34542E+05 7.16241E+06
 -1         2 7.49886E+06-7.08581E+05 1.44121E+06-9.41285E+06 3.74463E+05-1.18659E+07
 -1         3-5.34561E+06 6.47663E+05-1.61026E+06-9.42058E+06-6.04303E+05-1.14569E+07
 -1         4-1.32934E+07-1.26930E+05-1.28331E+06-3.62008E+06 1.13318E+06 7.25338E+06
 -1         5 9.16224E+05 2.71565E+06-5.54471E+06-8.97430E+04 5.90063E+04-1.82345E+05
 -1         6-1.68348E+05 6.63844E+06-8.31722E+06-3.86662E+05-1.31078E+05-3.28249E+04
 -1         7-1.11066E+06-6.61018E+06 8.13803E+06-4.59230E+05-2.20896E+05-3.63957E+05
 -1         8-1.33673E+06-2.43256E+06 4.95783E+06-4.03572E+05 1.52567E+05 3.56795E+05
 -1         9-1.73901E+06-5.43290E+05-1.54355E+06 6.26090E+06-3.19442E+05-4.07415E+06
 -1        10 2.85942E+06-5.19084E+00 3.18344E+01 1.40457E+06-1.04841E+01 4.74418E+06
 -1        11-5.21202E+06-7.13251E+00 3.16644E+01-1.81080E+06 3.59517E+00-1.14834E+07
 -1        12-1.90928E+06-7.58960E+05 3.19119E+05-8.45090E+06 1.63458E+05 2.37335E+06
 -1        13 1.00287E+07 5.12923E+00 9.10597E-01-5.50864E+06-7.92672E+00 4.36207E+06
 -1        14-1.18987E+07 1.30956E+01-6.56914E+00-1.11140E+07-8.00171E+00-4.32479E+06
 -1        15 3.65624E+06-1.97715E+05 2.22995E+06 5.30916E+06 1.50458E+05-2.05310E+06
 -1        16 6.35706E+06 5.91771E+00-3.29735E+01-1.93377E+06-3.74053E+00-1.06878E+07
 -1        17-2.36053E+06-5.49876E-01-2.82238E+01 1.28311E+06 6.67840E+00 5.67286E+06
 -1        18-5.14014E+04 2.93052E+05 6.64500E+04-7.50267E+06-4.23978E+05 2.01219E+06
 -1        19 1.20585E+07-1.71615E+01 3.08693E+00-1.05732E+07 3.88591E+00-4.76473E+06
 -1        20-1.19599E+07-4.23440E+00-6.66759E+00-5.81255E+06 1.03917E+01 4.27752E+06
 -1        21-7.04874E+05-1.82982E+06-7.22808E+07-6.48861E+05 6.88159E+05-1.11146E+06
 -1        22 1.62840E+05 8.42948E+05-4.26247E+07-3.24782E+05 1.62187E+06 4.94424E+05
 -1        23 2.96050E+05 7.59489E+05-4.60335E+07-1.23352E+06-1.58641E+06-1.69936E+06
 -1        24-2.73744E+05-2.16916E+07-5.74437E+05-4.39470E+06 5.43881E+06-6.72730E+05
 -1        25-3.48471E+05-7.20076E+06-9.64541E+05-1.26696E+06 1.93692E+06-4.79258E+05
 -1        26 1.78766E+05-1.95561E+07 1.34737E+06-1.80357E+06 1.00105E+06-6.25988E+05
 -1        27 6.84307E+05 9.77733E+05 7.93100E+07-7.47493E+05-1.37779E+06-9.73004E+05
 -1        28-6.14739E+05-8.32911E+05 4.90873E+07-9.42564E+05 1.47440E+06-1.34370E+06
 -1        29-5.33835E+05 2.38515E+04 4.47588E+07-4.69076E+05-2.48614E+06 7.75621E+05
 -1        30 3.03283E+05 2.58342E+07 1.22233E+06-3.75891E+06-4.17229E+06-7.13969E+05
 -1        31-3.44074E+05 2.19469E+07-1.38820E+06-1.72117E+06-1.10555E+06-7.24433E+05
 -1        32 1.56840E+05 7.69346E+06 1.54536E+06-2.28779E+06-2.21006E+06 3.20002E+05
 -1        33-2.45663E+05 1.39224E+06-4.86471E+06-4.69701E+06 2.47220E+05 2.35293E+06
 -1        34 5.63590E+06 1.72458E+06-3.03669E+05-3.49629E+06-6.15312E+05 4.55761E+06
 -1        35 5.03781E+05 2.67310E+06-7.17146E+05-2.02289E+06-3.32279E+05 9.74535E+05
 -1        36-2.98354E+06 3.97826E+06-5.36048E+06-6.63016E+06-1.32590E+05-6.60405E+06
 -1        37 2.71912E+06 1.89570E+06-8.02297E+05-6.51460E+06 4.05626E+05-7.76541E+06
 -1        38-1.89493E+06 2.68106E+06-3.25858E+06-4.17452E+06 4.91469E+05-3.86335E+06
 -1        39-2.93709E+06-4.02109E+06 5.43371E+06-7.16758E+06 8.73437E+05-5.87448E+06
 -1        40-3.85243E+06-1.26804E+06 1.39880E+06-7.15989E+06 5.86063E+05-6.77357E+06
 -1        41-2.44833E+06-3.63462E+06 2.47430E+06-4.43359E+06-2.45237E+05-3.67997E+06
 -1        42 3.32819E+05-9.90628E+03 6.00683E+06-4.15610E+06-1.55825E+06 2.34097E+06
 -1        43-6.91448E+06-8.87098E+05 9.56332E+05-3.79202E+06 2.10121E+05 4.37380E+06
 -1        44-1.46446E+05-2.04143E+06 4.87697E+05-2.23320E+06-4.49672E+05 1.02696E+06
 -1        45 4.79359E+05 9.21682E+05 4.15661E+05 7.38270E+06-3.28325E+05 3.00386E+06
 -1        46 4.10700E+04-1.79825E+05-9.18491E+05-4.11941E+05 3.06777E+05-3.42813E+06
 -1        47-1.79241E+06-1.51429E+05 2.02243E+06 2.83469E+06 1.78656E+06 4.20456E+06
 -1        48 3.14602E+06-2.96914E+05-1.57767E+05 1.46208E+06-6.26347E+05 3.02724E+06
 -1        49 1.21294E+06-1.96883E+05 1.19339E+05-5.43169E+05-3.87739E+04-2.93153E+06
 -1        50 2.86035E+06-4.94646E+05 5.87131E+05-5.37420E+06 4.62444E+04-8.39798E+06
 -1        51-2.49284E+06-3.84790E+00 3.00807E+01 3.45331E+06 2.74472E+00-4.63575E+06
 -1        52-2.53753E+06 2.92807E+00 1.22035E+06 5.99701E+06 7.60324E+05 3.56904E+05
 -1        53-5.53055E+05-4.33251E+05-9.83196E+05 3.16172E+06-7.08222E+05 1.57044E+06
 -1        54-1.71234E+06 1.87756E+05 5.90203E+05 4.78213E+06 3.88925E+05 1.14337E+06
 -1        55 3.90299E+06-3.53220E+05 2.91824E+05-1.02172E+06 3.06971E+04 5.58416E+06
 -1        56-1.51095E+06 1.77920E+05 7.19120E+05 4.75290E+06-4.48522E+05 2.81752E+06
 -1        57-1.81003E+05 1.01938E+05 5.01159E+05-2.96494E+06 3.01515E+05 3.33397E+06
 -1        58-2.60986E+05 1.03641E+06-9.63004E-01 1.01876E+06 9.35246E+05 2.89655E+06
 -1        59-2.21092E+06 1.24193E+01-6.46837E+00-4.49230E+06-7.71395E+00 2.39554E+05
 -1        60-1.99449E+06 2.82369E+05-6.83009E+05-5.36590E+06-2.00321E+05-7.61934E+06
 -1        61 3.27994E+06-7.66288E+05 5.30959E+05 4.88167E+06-1.17667E+05 2.11774E+06
 -1        62 8.60322E+05 1.63513E+05-2.09162E+05-4.03908E+06 2.28277E+04-4.36594E+05
 -1        63 8.35811E+05-1.05593E+01-2.18209E+00-5.17586E+05 1.56373E+01 2.00406E+06
 -1        64 3.48884E+06 2.20112E+05-1.57648E+05 3.87100E+06 3.12679E+04 1.02816E+06
 -1        65-4.65660E+06 1.88662E+04-3.65616E+05-1.45432E+06 1.73373E+05 5.15148E+06
 -1        66 1.93574E+06-1.03102E+01-1.28613E+01 3.75868E+06 2.00438E+01 2.61260E+06
 -1        67 4.20189E+06 1.29860E+00-7.12687E+05 6.68251E+06-5.28873E+05 1.13418E+06
 -1        68 8.71022E+05-1.55970E+05-2.79824E+05-2.78343E+06-2.17866E+05 2.37191E+06
 -1        69 3.08419E+06 4.50098E+00-2.96636E+01 3.25015E+06-4.68712E+00-3.71638E+06
 -1        70 4.36939E+05 2.06341E+06 3.07426E+06 3.95030E+06-1.48648E+06 1.19456E+06
 -1        71 4.46440E+05 4.51878E+06-1.72808E+07 6.36626E+05-3.49975E+06 3.87804E+05
 -1        72 1.67633E+05 8.15855E+06 2.07377E+07 9.62660E+05-8.82978E+06 1.32718E+05
 -1        73-2.37191E+04-3.67181E+06 1.99331E+07 1.17920E+06 3.44073E+06 3.14478E+03
 -1        74 1.28764E+05-7.68007E+06-2.04010E+07 1.07234E+06 1.01055E+07-2.99419E+04
 -1        75 2.11773E+05 1.43506E+07 8.43612E+06-1.29927E+06-6.13067E+06-5.79700E+05
 -1        76-2.64248E+05 3.57938E+06 1.36577E+07 1.20728E+06-4.25451E+06-2.21187E+04
 -1        77 3.27101E+05 3.82591E+06 4.99607E+07-3.74247E+05-5.19096E+06 1.07025E+05
 -1        78 5.76442E+05 1.16780E+07 1.87125E+06-3.05937E+05-6.00773E+06 1.37504E+05
 -1        79 6.35653E+05 8.66377E+06 1.27549E+07 1.45986E+06-8.72520E+06 1.00770E+06
 -1        80 9.83482E+05 1.63292E+06 4.08121E+07 1.79825E+06-1.87207E+06-2.85056E+05
 -1        81-3.86514E+04-1.53132E+07 6.67904E+06-1.69986E+06 3.96673E+06-2.25986E+05
 -1        82-3.77321E+05-6.17232E+06 1.54124E+07 3.53661E+05 1.62806E+06-1.44029E+05
 -1        83 4.55567E+05-9.65407E+05 5.08030E+07-4.21428E+05 2.22472E+06-8.98028E+05
 -1        84 2.73879E+05 1.02789E+06 1.22542E+07 3.19244E+06 4.61280E+06 1.15890E+06
 -1        85-5.30888E+04-9.59480E+06 6.49306E+05-9.92193E+04 6.67361E+06 7.99697E+05
 -1        86 1.41017E+05-1.24513E+07-8.23872E+06-1.42129E+06 7.05903E+06-7.98955E+05
 -1        87 4.22746E+05-2.46726E+06-1.41246E+07 9.41297E+05 5.03256E+06 4.51695E+04
 -1        88-1.33973E+05-3.92506E+06-4.59247E+07-2.46644E+05 5.76374E+06-2.59039E+05
 -1        89-8.41488E+04-5.31618E+06-9.24360E+06 1.46379E+06 8.49470E+06 6.12027E+05
 -1        90-2.84544E+05-9.65084E+05-3.33443E+07 1.43816E+06 1.82230E+06 7.52782E+05
 -1        91 5.13846E+05 1.75836E+07-5.15926E+06-1.56520E+06-3.27782E+06-1.66730E+03
 -1        92 1.37581E+05 6.62311E+06-1.40769E+07 2.15342E+05-1.96382E+06 9.34854E+04
 -1        93 4.95371E+04 8.10562E+05-8.54325E+06 2.38975E+06-4.38105E+06 1.19550E+06
 -1        94 2.37819E+05 4.64811E+05-4.66345E+07-9.73367E+05-1.78150E+06-1.16213E+06
 -1        95-7.16404E+05-2.33255E+06-4.14463E+07 5.44974E+06 2.01017E+06-3.14102E+06
 -1        96-1.11192E+06-9.90987E+05-4.31470E+07 2.05212E+06-1.59073E+06-4.95128E+06
 -1        97 7.01942E+05-1.84170E+06-3.69229E+07 8.14421E+05 4.33116E+06 7.13747E+05
 -1        98 3.24351E+05 4.96950E+05-1.41315E+07 2.20764E+06 3.26494E+06 5.09959E+06
 -1        99-1.19052E+06-1.13591E+06-1.29028E+07 1.79927E+06-1.26069E+06-1.07371E+07
 -1       100 4.64534E+06-3.32318E+05-4.81515E+06-3.06761E+05 1.14219E+06 6.79207E+06
 -1       101-1.30544E+06 1.97621E+05-8.02458E+06 3.51694E+06 4.34158E+05 2.09474E+06
 -1       102-2.39127E+06-1.24391E+06-1.90203E+07 5.09792E+06 8.19156E+05-3.83345E+06
 -1       103-1.35454E+06 2.48675E+05-3.20948E+07 2.67519E+06 3.32375E+06 1.96365E+06
 -1       104-7.29266E+05-1.90992E+06-2.74474E+07 3.74901E+06-6.92173E+05-6.25318E+06
 -1       105-3.04002E+06 5.02788E+05-7.49749E+06 4.40072E+06-4.80829E+05-9.15914E+06
 -1       106 1.75259E+06-1.19101E+06-4.86581E+06-2.59979E+06-5.94598E+05-1.26630E+07
 -1       107-4.78041E+04-2.40170E+06-4.49121E+07 4.59512E+06-1.48312E+06-5.51508E+06
 -1       108-1.82447E+06 1.36096E+06-2.24820E+07-1.10569E+06 1.33710E+05-8.38177E+06
 -1       109-1.05333E+04 1.57754E+06-2.75072E+07 1.44378E+06 7.16570E+05-7.83917E+06
 -1       110-2.93863E+05-6.43356E+05-6.37521E+07 9.39102E+05-8.54457E+04-1.74950E+06
 -1       111-7.70624E+05-2.94768E+06-5.98010E+07 4.26548E+05-1.84044E+06-2.07801E+06
 -1       112-3.40738E+05 2.20734E+06-2.56586E+07 5.57824E+05-1.13023E+06-2.75560E+06
 -1       113 6.50798E+05-7.31309E+05-4.67639E+07 1.98385E+06 4.17544E+06 7.79347E+05
 -1       114-2.94919E+05 5.57399E+05-5.90133E+07 1.21951E+05 3.06351E+06-7.41269E+05
 -1       115-1.35610E+05-2.05715E+06-2.76680E+07-2.45227E+05 3.46793E+06 2.73925E+06
 -1       116 2.85701E+05-8.19571E+05-1.83890E+07-1.82911E+06 1.50088E+06 2.52580E+06
 -1       117 1.01962E+06-7.56318E+05-1.99332E+07 1.98774E+05 2.29681E+06-1.31117E+05
 -1       118 1.05049E+05 9.61366E+05-1.06750E+07-1.25131E+06 1.82022E+06 4.32480E+06
 -1       119-2.06065E+06 1.31406E+06-1.09301E+07-1.74790E+06-5.46072E+05-9.52737E+06
 -1       120 1.76142E+06 3.48045E+06 4.27231E+07 5.50468E+06-1.57711E+06-3.11751E+06
 -1       121-6.64347E+05-6.16255E+05 4.05983E+07 1.82246E+06 2.45235E+06-3.66353E+06
 -1       122 1.01625E+06-6.37174E+05 1.45443E+07 1.19294E+06 1.57528E+06-1.04240E+07
 -1       123-1.81418E+05 2.61838E+06 3.80490E+07 4.83647E+05-6.52889E+06-8.04049E+05
 -1       124 1.60001E+04 6.54942E+05 1.23492E+07 1.62881E+06-1.49158E+06 6.72703E+06
 -1       125-1.45627E+05 8.63134E+05 2.07381E+07-1.34959E+06-4.33908E+06 7.56428E+05
 -1       126 1.71216E+05 2.12746E+06 4.76694E+07 1.73031E+06-6.51328E+06 8.48631E+04
 -1       127 3.51710E+05 1.60060E+06 3.00128E+07-2.29280E+05-4.97438E+06 3.11525E+05
 -1       128-6.98007E+05 8.87467E+05 2.13961E+07-1.85344E+04-2.63120E+06 2.43720E+05
 -1       129-1.80355E+05 7.72559E+05 9.61587E+06-1.14873E+06-1.43036E+06 5.16734E+06
 -1       130 2.71063E+06-1.52642E+05 3.29141E+07 2.95122E+06-3.91678E+06 7.92432E+05
 -1       131-6.07124E+06 3.83939E+05 4.17224E+06-6.80141E+05-1.58731E+05 7.64527E+06
 -1       132-3.00764E+06-2.66776E+06 2.06958E+07-2.18691E+06 1.13196E+06-6.48148E+06
 -1       133-5.02212E+05-4.34624E+05 2.60230E+07 1.02415E+06-5.33011E+05-7.78678E+06
 -1       134 1.02170E+06 1.62723E+06 4.35409E+07 4.41046E+06 7.29146E+05-4.24662E+06
 -1       135-1.07038E+06-1.73328E+06 2.47267E+07 1.12079E+06 1.07913E+06-2.31472E+06
 -1       136-1.89892E+05 8.10401E+05 6.38876E+07 9.47330E+04 1.95307E+06-1.60999E+06
 -1       137 6.10174E+05 2.34368E+06 6.43428E+07 1.32393E+06-2.37668E+06-1.01979E+06
 -1       138 3.02705E+06-1.23838E+06 8.78201E+06 3.11249E+06 4.19541E+05-6.81043E+06
 -1       139 2.60798E+06-1.67512E+05 2.38845E+07 3.54396E+06-3.16320E+05-4.08889E+06
 -1       140 2.11862E+06 2.16145E+06 2.69790E+07 3.02968E+06 4.73986E+05-7.78361E+06
 -1       141-9.63355E+05 1.08946E+05 5.69448E+06-2.68862E+06 3.95210E+05-1.23399E+07
 -1       142-1.66876E+06-1.96613E+06 1.22059E+07-1.08473E+06 1.07126E+06-1.00041E+07
 -1       143 1.80022E+05 1.87588E+06 6.02168E+07-3.21909E+05-4.98823E+06-8.99332E+05
 -1       144 1.19341E+06 5.10887E+05 7.32621E+06 3.17011E+06-5.52703E+04 3.13629E+06
 -1       145 6.63481E+04-1.33577E+07-3.14472E+06-9.94684E+06 6.92328E+06 2.11101E+06
 -1       146-3.03672E+06-5.02511E+06-9.38886E+05-1.09526E+07 3.10044E+06-6.44615E+05
 -1       147-1.09687E+06-1.82452E+07 3.83855E+06-7.55327E+06 4.23688E+06 2.22391E+06
 -1       148-3.99921E+05-4.44178E+06-4.84132E+05-5.96772E+06 4.67807E+06-2.01126E+05
 -1       149 2.17356E+06-1.99675E+06 9.31016E+05-8.11701E+06 1.94157E+06-7.02420E+05
 -1       150 1.36174E+06-1.82508E+06 1.45653E+05-7.81950E+06 1.15945E+06 2.94851E+05
 -1       151 7.87376E+06-6.96345E+05 1.53792E+06-5.18198E+06 5.82846E+05 2.74090E+06
 -1       152-1.55134E+06-6.70862E+06-6.31372E+05-9.88553E+06 3.73980E+06 1.60144E+06
 -1       153-4.61635E+06-3.63794E+06 1.17519E+06-1.17720E+07 1.34954E+06 1.51351E+06
 -1       154-5.01679E+05-9.99772E+06-3.05899E+06-9.80384E+06 4.64159E+06 1.28282E+06
 -1       155 3.19367E+05-8.36517E+06 2.51482E+05-1.07565E+07 3.27338E+06-1.39898E+06
 -1       156-5.59399E+06-8.66878E+05-1.70632E+06-1.19463E+07 9.12140E+05-3.95963E+06
 -1       157 3.95008E+05 9.10239E+05-2.37642E+05-6.93720E+06 1.47952E+06 7.13931E+05
 -1       158-3.54334E+06-4.47047E+06 8.63855E+05-9.37570E+06 2.94235E+06-2.04788E+06
 -1       159-4.56194E+05-1.06080E+07-2.16744E+06-1.11242E+07 3.59049E+06 1.38384E+05
 -1       160-1.59596E+06-8.92177E+06 1.27478E+05-9.58454E+06 2.54146E+06-7.74137E+05
 -1       161 3.27924E+05-1.78300E+07-1.04382E+06-9.91318E+06 3.00130E+06 2.89139E+06
 -1       162-1.03859E+06-1.29338E+07 3.32451E+06-4.54558E+06 2.05783E+06 1.23225E+06
 -1       163-4.16080E+05-2.27286E+07 1.08871E+06-5.24887E+06 4.68258E+06 2.73269E+05
 -1       164 4.18673E+05-2.24029E+07 5.34111E+05-7.33505E+06 6.01081E+06-2.74815E+05
 -1       165-6.49770E+05-1.36091E+07 1.52265E+06-5.90010E+06 5.62270E+06-1.67204E+05
 -1       166 3.17965E+05-1.10886E+07-8.69763E+05-7.73556E+06 7.60368E+06 4.10689E+04
 -1       167-2.51799E+05-4.42602E+05-1.99260E+06-4.56182E+06 1.74813E+06 2.70636E+05
 -1       168 6.30544E+05-5.27957E+06-2.92790E+06-7.22780E+06 5.17575E+06-3.44833E+05
 -1       169 2.72204E+05 8.18312E+05-2.30726E+06-3.48516E+06 2.27730E+06-3.96689E+05
 -1       170 4.24580E+05 1.29819E+07 1.30814E+06-8.14265E+06-7.64156E+06 2.39295E+06
 -1       171-2.54469E+05 6.43008E+06-1.06390E+06-5.32395E+06-3.21700E+06-1.58875E+06
 -1       172-5.86969E+05 1.76872E+07-5.65088E+06-6.77682E+06-5.15320E+06 2.16149E+06
 -1       173-3.51784E+06 1.36335E+06 6.31906E+05-7.35658E+06-2.57254E+06-1.21110E+05
 -1       174 1.57102E+06 6.75664E+06 6.50850E+05-1.44033E+07-9.05050E+05 1.50603E+06
 -1       175-1.02365E+06-3.00226E+05 3.55039E+06-6.14444E+06-1.63793E+06 1.09659E+06
 -1       176-9.40395E+06 3.65316E+05-7.07890E+05-5.23301E+06-7.76045E+05 2.54837E+06
 -1       177-3.23224E+05 9.62227E+06-5.87363E+05-1.15389E+07-6.22742E+06 3.18037E+05
 -1       178 1.19610E+06 7.56089E+06 4.81303E+05-7.83244E+06-5.10939E+06 2.07644E+06
 -1       179 1.47027E+06 1.95143E+06-5.87489E+05-4.00452E+06-2.57615E+06-7.98082E+05
 -1       180-1.14335E+06-2.86765E+04 2.06758E+06-3.91879E+06-1.37439E+06-5.15444E+05
 -1       181-3.30767E+05 1.26393E+07-3.00796E+06-5.21665E+06-3.36577E+06-4.13044E+05
 -1       182-2.80228E+06 7.93344E+06-3.15196E+06-8.51541E+06-3.01881E+06-2.40644E+06
 -1       183 4.64755E+05 1.71331E+07-1.48025E+06-7.36152E+06-8.15483E+06 3.76164E+06
 -1       184-5.96311E+05 8.37327E+06 1.47902E+06-9.58090E+06-4.44090E+06 3.82313E+05
 -1       185-7.05274E+05 1.19196E+07-2.93765E+06-3.42597E+06-2.31598E+06 1.99083E+06
 -1       186-7.06193E+05 2.64280E+07-3.97799E+05-4.17355E+06-3.87988E+06 4.78477E+05
 -1       187-4.94249E+05 1.94435E+07 8.48576E+05-5.29334E+06-6.94884E+06 4.63891E+05
 -1       188-2.73987E+06 1.19199E+06 4.53852E+05-7.78676E+06-1.83773E+06 5.25624E+05
 -1       189 8.88676E+05 7.71391E+06-5.98581E+05-1.03827E+07-3.76095E+06 2.06786E+06
 -1       190-1.66563E+06 5.83049E+06-8.32342E+05-1.07878E+07-4.76274E+05-1.20228E+06
 -1       191 1.66101E+06 9.01674E+06 6.03734E+05-1.33219E+07-2.32975E+06 3.12204E+06
 -1       192 6.63462E+06 2.76475E+06 1.44304E+06-1.18414E+07-2.10695E+05-4.22493E+06
 -1       193 2.16468E+06 3.47800E+06 1.06391E+05-1.14143E+07-1.21666E+06 2.15573E+06
 -1       194-9.29163E+04 1.58471E+07-3.01891E+06-4.58834E+06-3.76345E+06-9.67123E+05
 -1       195 7.61690E+05 3.28854E+06 6.26541E+06 7.18160E+06-4.35155E+06 2.44504E+06
 -1       196 5.37261E+05-5.55070E+06-9.70958E+06 5.33436E+06 9.80549E+06 1.32381E+06
 -1       197-9.04683E+05 2.68071E+05-4.84959E+06 2.50780E+06 3.31289E+06 4.20712E+06
 -1       198-2.37905E+06-8.30053E+05-1.47102E+07 4.33748E+06 4.03697E+06 1.26095E+06
 -1       199 1.83069E+05-2.53860E+06-1.39918E+07 3.22135E+06 6.36815E+06 1.91356E+06
 -1       200-1.03607E+05-3.99165E+06-2.68502E+07 5.00669E+06 5.15549E+06-6.18848E+05
 -1       201-6.42477E+05-4.22014E+06-3.03391E+06 4.28468E+06 5.94971E+06 1.49449E+06
 -1       202-1.03081E+06-8.63309E+06 1.37126E+07-5.33286E+06 3.78800E+06-1.40666E+05
 -1       203-1.13216E+06-8.43499E+06 1.98357E+07-3.18035E+06 3.11007E+06-3.36733E+05
 -1       204 4.57481E+05-3.72259E+06 1.43770E+07 3.74914E+06 7.01975E+06 3.13970E+04
 -1       205 1.11445E+04-9.63049E+06-1.29190E+05-6.38244E+05 8.13639E+06 1.64531E+06
 -1       206 3.28588E+05-9.75006E+06-4.74195E+06-1.45239E+06 9.45843E+06 2.18647E+06
 -1       207 3.50343E+04 4.00622E+05 2.47129E+07 2.18887E+06 3.48557E+06-1.76844E+05
 -1       208 1.19688E+04-1.56026E+06 3.18253E+07 1.46613E+06 2.91923E+06-1.38105E+06
 -1       209-6.42369E+05 9.48766E+06 1.00078E+07-3.01691E+06-8.91225E+06 3.19528E+05
 -1       210-2.72918E+05 6.70793E+06 1.04647E+07-2.01281E+06-6.69780E+06-6.43293E+05
 -1       211 8.68174E+04 8.15158E+06-5.29398E+06-4.82804E+05-4.86439E+06 8.63475E+05
 -1       212 2.00120E+05 1.21321E+07-1.06806E+07-2.15522E+06-3.83056E+06 1.61327E+06
 -1       213-2.66843E+05 4.77271E+06-5.11127E+06-4.09137E+06-3.65038E+06-3.34480E+06
 -1       214 5.32578E+05 2.28657E+06-5.35802E+06-5.84534E+06-1.37996E+06-5.24834E+06
 -1       215 3.08985E+05-7.85472E+05-1.03905E+05-2.74365E+06 1.88150E+06 2.31743E+06
 -1       216-8.63320E+05-4.79558E+06-8.97737E+05-3.51401E+06 5.27401E+06 2.91682E+06
 -1       217 5.24835E+05 4.56088E+06 2.31545E+07 2.26744E+06-6.51726E+06 7.87975E+04
 -1       218 2.24593E+05 5.61704E+06 2.91433E+07 4.35728E+05-7.82925E+06-5.00842E+05
 -1       219 8.86953E+05 2.31478E+06 2.57214E+07 3.84186E+06-2.33242E+06 1.87665E+05
 -1       220 1.44156E+06 1.37532E+05 1.31539E+07 6.98495E+06 4.44856E+06 9.07926E+05
 -1       221 3.19008E+05-1.58456E+06-3.65147E+06 4.69179E+06 4.59955E+06 1.04344E+06
 -1       222 3.22338E+05 7.59171E+06 1.63410E+06-5.11853E+05-8.80872E+06 1.50101E+06
 -1       223 4.49143E+05 4.21374E+06-1.15231E+07 1.06105E+06-1.33253E+06 2.17626E+06
 -1       224 1.10145E+06 3.05300E+06-3.38713E+06 2.29592E+06-1.92824E+06 2.63253E+06
 -1       225-3.97268E+05 4.82830E+06-1.63203E+07 5.63491E+05-3.53006E+06-1.22872E+06
 -1       226-5.36989E+05 1.67667E+06-4.42624E+06 3.94062E+06-2.09862E+06-1.61895E+06
 -1       227 2.83944E+05 4.46657E+05-1.36246E+07 5.33448E+06-1.56708E+06 1.34991E+06
 -1       228 1.18506E+05 7.76964E+06 3.53577E+06-6.11557E+05-6.88302E+06 1.57343E+06
 -1       229-4.96018E+05-1.60923E+06-1.47571E+06 4.87100E+05 4.21676E+06 2.18228E+06
 -1       230 7.57605E+04-2.49905E+06-3.68281E+06 6.47941E+06 3.77307E+06 1.32809E+06
 -1       231-4.46472E+05 3.28025E+06 2.17370E+07 2.90302E+06-6.39144E+06-8.57628E+05
 -1       232 5.24531E+05 5.66496E+06 4.33707E+06 5.05767E+06-6.15699E+06 7.57359E+05
 -1       233 1.09898E+06 3.54993E+06 2.36542E+07 6.28335E+06-1.83204E+06 5.56927E+05
 -1       234-1.81974E+06-1.09156E+06-1.27438E+07 5.87657E+06 1.61660E+06 3.23252E+05
 -1       235-2.44282E+05-4.63626E+06 1.51480E+07-1.60307E+06 3.08534E+06-1.40332E+05
 -1       236 1.16855E+06-4.15273E+06 2.42724E+06 1.13177E+06 2.82990E+06 2.20421E+06
 -1       237 9.74628E+05 1.41140E+06 2.00871E+06 7.01326E+06-1.90539E+06 2.26035E+06
 -1       238 6.16456E+05-9.94277E+05-4.38168E+05 6.18246E+06 2.21188E+06 1.54261E+06
 -1       239 7.19608E+04-5.92321E+06-1.04837E+07-2.06792E+06 7.82939E+06-1.32457E+05
 -1       240 2.25429E+05-1.03438E+07-5.00743E+06-4.37656E+05 9.31435E+06 5.48584E+05
 -1       241 2.27470E+05-6.69563E+06-1.45984E+07 2.30542E+06 1.21327E+07 3.95483E+05
 -1       242-1.82498E+05-5.40506E+06-7.37241E+06-1.69093E+06 9.41994E+06 6.64911E+05
 -1       243 2.15592E+05-4.67376E+06-2.90906E+07 8.28156E+05 7.98816E+06 7.96530E+04
 -1       244-4.35892E+04-3.52536E+06-3.66831E+07 2.39702E+06 5.47238E+06 5.58590E+04
 -1       245 6.70559E+05-4.21467E+06-2.34616E+07 2.28627E+06 9.62241E+06 9.46834E+04
 -1       246 4.75595E+05-3.05752E+06-1.59065E+07-2.11530E+06 3.66355E+06 5.02252E+04
 -1       247 2.93982E+05-2.81032E+06-9.57068E+06-7.37668E+05 6.48377E+06 9.48187E+05
 -1       248-2.12179E+06 9.22393E+05 5.39753E+06-2.58014E+06-1.70869E+06 2.98102E+06
 -1       249 8.78496E+05 2.06107E+06 1.05607E+07 4.39885E+06-4.78519E+06 4.35565E+06
 -1       250-1.60488E+06 2.55877E+06 3.93306E+06 3.80570E+05-5.53116E+06 1.58076E+06
 -1       251-3.60125E+05 2.24883E+06 7.32299E+06 1.14168E+06-4.68891E+06 1.58170E+06
 -1       252 1.24323E+06 5.55141E+04 5.49963E+06 1.32770E+06-1.32999E+06 4.53908E+06
 -1       253 2.52211E+06 1.00415E+06 6.08546E+06 6.03077E+06-1.73548E+06 9.34690E+05
 -1       254 2.43250E+06 1.63113E+06 3.09356E+06 4.57720E+06-4.29553E+06 3.03079E+06
 -1       255-3.46040E+05 6.56316E+05 7.27521E+05-2.89352E+06-1.80315E+06 1.53631E+06
 -1       256 7.99007E+05 1.30909E+06 1.62502E+06 3.28517E+05-3.08357E+06 2.45168E+06
 -1       257 1.39860E+06 1.44703E+06 1.28929E+07 3.97442E+06 7.74109E+05-1.39093E+06
 -1       258-1.92171E+05-3.76154E+06-2.67252E+07 4.10781E+06 1.10543E+06-4.80649E+05
 -1       259 6.54876E+05 1.19425E+06 1.17762E+05 3.67342E+06-2.18287E+06 8.11098E+05
 -1       260 9.53220E+05-3.25211E+05 5.51270E+06 7.66059E+04 1.15203E+06-7.28547E+06
 -1       261-1.63862E+06-1.56294E+06 3.08777E+04-6.90074E+06 1.18618E+06-1.77442E+06
 -1       262-9.17594E+05-1.24876E+07 1.19265E+07-2.96070E+06 4.19062E+06 8.20534E+05
 -1       263-8.40817E+05 7.70977E+06-2.21740E+07-2.41939E+06-2.58999E+06-2.13188E+06
 -1       264 8.58793E+05 3.03707E+06-2.92420E+05-7.01145E+06-4.10595E+05-2.06358E+06
 -1       265 2.25862E+06-8.66453E+05-4.83480E+06-2.41443E+06 3.01841E+06 2.49137E+06
 -1       266-9.16325E+05-4.87343E+05-5.27499E+06 6.25730E+05-5.28342E+05-7.05901E+06
 -1       267-3.20362E+04 4.02196E+06 1.62789E+07-2.54292E+06-4.96444E+06-1.27289E+06
 -1       268-1.36503E+06-2.04444E+06 6.28471E+06-4.32250E+06 2.42518E+06-5.72711E+06
 -1       269-3.71189E+05 1.53369E+06-3.11334E+07 9.28557E+05-2.64456E+06-1.83008E+06
 -1       270-6.01100E+05-7.70397E+06 7.04768E+06-1.01217E+06 5.97792E+06 1.66113E+06
 -1       271-1.11611E+06-1.57337E+06 1.69362E+05 3.68066E+05 2.01645E+06 1.05195E+06
 -1       272 3.55253E+05-1.84118E+06 5.09367E+06 7.89124E+05 1.69402E+06 6.11935E+05
 -1       273 8.86330E+05-5.51973E+06-6.41009E+06-3.75564E+06 5.92443E+06 1.65723E+06
 -1       274-5.01869E+05 5.72858E+06-2.52668E+07 1.21912E+05-2.40183E+06-3.00953E+06
 -1       275-4.31081E+05-3.36950E+05-2.24025E+07 3.10103E+06-2.21290E+06-1.01195E+06
 -1       276-2.43884E+06-5.68080E+05-3.62405E+06 3.84588E+06-3.09817E+05-2.52167E+06
 -1       277-2.36585E+05 7.23470E+06 1.45108E+07-3.21658E+06-7.27704E+06-4.62862E+05
 -1       278-8.72824E+05-1.02833E+06 1.74508E+07-1.89304E+06 2.00766E+06-3.80641E+06
 -1       279 1.26170E+06 5.68768E+06-1.31279E+06-5.56541E+06-1.92166E+06-9.11259E+05
 -1       280 2.98664E+06-8.17020E+05 5.60911E+06 4.13932E+06 1.03406E+06-1.88123E+06
 -3
    1PSTEP                        24           1           1          
    1PGM                1.000000E+00                                  
    1PGK                2.097642E+12                                  
    1PHID                         -1                                  
    1PSUBC                         0                                  
    1PMODE                         8                                  
  100CL  108 2.30508E+05         280                     2    8MODAL      1
 -4  TOSTRAIN    6    1
 -5  EXX         1    4    1    1
 -5  EYY         1    4    2    2
 -5  EZZ         1    4    3    3
 -5  EXY         1    4    1    2
 -5  EYZ         1    4    2    3
 -5  EZX         1    4    3    1
 -1         1 5.59854E+01-1.04975E-02 6.79272E+00-1.51527E+01-4.67271E+00 3.58121E+01
 -1         2 3.74943E+01-3.54291E+00 7.20607E+00-4.70643E+01 1.87231E+00-5.93293E+01
 -1         3-2.67280E+01 3.23831E+00-8.05131E+00-4.71029E+01-3.02152E+00-5.72846E+01
 -1         4-6.64671E+01-6.34652E-01-6.41655E+00-1.81004E+01 5.66588E+00 3.62669E+01
 -1         5 4.58112E+00 1.35782E+01-2.77235E+01-4.48715E-01 2.95031E-01-9.11724E-01
 -1         6-8.41742E-01 3.31922E+01-4.15861E+01-1.93331E+00-6.55392E-01-1.64125E-01
 -1         7-5.55331E+00-3.30509E+01 4.06902E+01-2.29615E+00-1.10448E+00-1.81978E+00
 -1         8-6.68364E+00-1.21628E+01 2.47892E+01-2.01786E+00 7.62834E-01 1.78397E+00
 -1         9-8.69506E+00-2.71645E+00-7.71777E+00 3.13045E+01-1.59721E+00-2.03707E+01
 -1        10 1.42971E+01-2.59542E-05 1.59172E-04 7.02284E+00-5.24203E-05 2.37209E+01
 -1        11-2.60601E+01-3.56626E-05 1.58322E-04-9.05399E+00 1.79758E-05-5.74170E+01
 -1        12-9.54642E+00-3.79480E+00 1.59560E+00-4.22545E+01 8.17289E-01 1.18668E+01
 -1        13 5.01437E+01 2.56461E-05 4.55299E-06-2.75432E+01-3.96336E-05 2.18103E+01
 -1        14-5.94934E+01 6.54780E-05-3.28457E-05-5.55698E+01-4.00085E-05-2.16240E+01
 -1        15 1.82812E+01-9.88576E-01 1.11497E+01 2.65458E+01 7.52288E-01-1.02655E+01
 -1        16 3.17853E+01 2.95885E-05-1.64867E-04-9.66883E+00-1.87026E-05-5.34388E+01
 -1        17-1.18026E+01-2.74938E-06-1.41119E-04 6.41556E+00 3.33920E-05 2.83643E+01
 -1        18-2.57007E-01 1.46526E+00 3.32250E-01-3.75134E+01-2.11989E+00 1.00609E+01
 -1        19 6.02925E+01-8.58077E-05 1.54346E-05-5.28661E+01 1.94295E-05-2.38236E+01
 -1        20-5.97995E+01-2.11720E-05-3.33379E-05-2.90628E+01 5.19586E-05 2.13876E+01
 -1        21-3.52437E+00-9.14912E+00-3.61404E+02-3.24430E+00 3.44079E+00-5.55728E+00
 -1        22 8.14201E-01 4.21474E+00-2.13124E+02-1.62391E+00 8.10933E+00 2.47212E+00
 -1        23 1.48025E+00 3.79745E+00-2.30168E+02-6.16759E+00-7.93207E+00-8.49681E+00
 -1        24-1.36872E+00-1.08458E+02-2.87218E+00-2.19735E+01 2.71941E+01-3.36365E+00
 -1        25-1.74236E+00-3.60038E+01-4.82271E+00-6.33479E+00 9.68458E+00-2.39629E+00
 -1        26 8.93829E-01-9.77806E+01 6.73683E+00-9.01786E+00 5.00526E+00-3.12994E+00
 -1        27 3.42153E+00 4.88867E+00 3.96550E+02-3.73747E+00-6.88896E+00-4.86502E+00
 -1        28-3.07370E+00-4.16455E+00 2.45437E+02-4.71282E+00 7.37199E+00-6.71850E+00
 -1        29-2.66918E+00 1.19257E-01 2.23794E+02-2.34538E+00-1.24307E+01 3.87810E+00
 -1        30 1.51641E+00 1.29171E+02 6.11164E+00-1.87945E+01-2.08615E+01-3.56984E+00
 -1        31-1.72037E+00 1.09735E+02-6.94099E+00-8.60587E+00-5.52777E+00-3.62216E+00
 -1        32 7.84198E-01 3.84673E+01 7.72682E+00-1.14390E+01-1.10503E+01 1.60001E+00
 -1        33-1.22832E+00 6.96119E+00-2.43235E+01-2.34850E+01 1.23610E+00 1.17646E+01
 -1        34 2.81795E+01 8.62288E+00-1.51834E+00-1.74815E+01-3.07656E+00 2.27880E+01
 -1        35 2.51890E+00 1.33655E+01-3.58573E+00-1.01144E+01-1.66140E+00 4.87267E+00
 -1        36-1.49177E+01 1.98913E+01-2.68024E+01-3.31508E+01-6.62952E-01-3.30202E+01
 -1        37 1.35956E+01 9.47852E+00-4.01148E+00-3.25730E+01 2.02813E+00-3.88270E+01
 -1        38-9.47467E+00 1.34053E+01-1.62929E+01-2.08726E+01 2.45734E+00-1.93167E+01
 -1        39-1.46855E+01-2.01055E+01 2.71686E+01-3.58379E+01 4.36719E+00-2.93724E+01
 -1        40-1.92621E+01-6.34021E+00 6.99399E+00-3.57995E+01 2.93032E+00-3.38678E+01
 -1        41-1.22417E+01-1.81731E+01 1.23715E+01-2.21680E+01-1.22619E+00-1.83998E+01
 -1        42 1.66410E+00-4.95314E-02 3.00341E+01-2.07805E+01-7.79127E+00 1.17049E+01
 -1        43-3.45724E+01-4.43549E+00 4.78166E+00-1.89601E+01 1.05060E+00 2.18690E+01
 -1        44-7.32232E-01-1.02072E+01 2.43848E+00-1.11660E+01-2.24836E+00 5.13478E+00
 -1        45 2.39679E+00 4.60841E+00 2.07830E+00 3.69135E+01-1.64163E+00 1.50193E+01
 -1        46 2.05350E-01-8.99127E-01-4.59245E+00-2.05970E+00 1.53389E+00-1.71407E+01
 -1        47-8.96206E+00-7.57144E-01 1.01122E+01 1.41735E+01 8.93280E+00 2.10228E+01
 -1        48 1.57301E+01-1.48457E+00-7.88836E-01 7.31039E+00-3.13174E+00 1.51362E+01
 -1        49 6.06470E+00-9.84414E-01 5.96694E-01-2.71585E+00-1.93869E-01-1.46576E+01
 -1        50 1.43017E+01-2.47323E+00 2.93566E+00-2.68710E+01 2.31222E-01-4.19899E+01
 -1        51-1.24642E+01-1.92395E-05 1.50404E-04 1.72666E+01 1.37236E-05-2.31788E+01
 -1        52-1.26877E+01 1.46403E-05 6.10174E+00 2.99850E+01 3.80162E+00 1.78452E+00
 -1        53-2.76528E+00-2.16625E+00-4.91598E+00 1.58086E+01-3.54111E+00 7.85218E+00
 -1        54-8.56172E+00 9.38779E-01 2.95102E+00 2.39106E+01 1.94462E+00 5.71685E+00
 -1        55 1.95149E+01-1.76610E+00 1.45912E+00-5.10861E+00 1.53485E-01 2.79208E+01
 -1        56-7.55474E+00 8.89601E-01 3.59560E+00 2.37645E+01-2.24261E+00 1.40876E+01
 -1        57-9.05016E-01 5.09690E-01 2.50579E+00-1.48247E+01 1.50758E+00 1.66699E+01
 -1        58-1.30493E+00 5.18206E+00-4.81502E-06 5.09382E+00 4.67623E+00 1.44827E+01
 -1        59-1.10546E+01 6.20966E-05-3.23419E-05-2.24615E+01-3.85698E-05 1.19777E+00
 -1        60-9.97247E+00 1.41184E+00-3.41504E+00-2.68295E+01-1.00161E+00-3.80967E+01
 -1        61 1.63997E+01-3.83144E+00 2.65479E+00 2.44084E+01-5.88337E-01 1.05887E+01
 -1        62 4.30161E+00 8.17564E-01-1.04581E+00-2.01954E+01 1.14139E-01-2.18297E+00
 -1        63 4.17905E+00-5.27964E-05-1.09104E-05-2.58793E+00 7.81865E-05 1.00203E+01
 -1        64 1.74442E+01 1.10056E+00-7.88241E-01 1.93550E+01 1.56340E-01 5.14080E+00
 -1        65-2.32830E+01 9.43312E-02-1.82808E+00-7.27159E+00 8.66865E-01 2.57574E+01
 -1        66 9.67869E+00-5.15510E-05-6.43066E-05 1.87934E+01 1.00219E-04 1.30630E+01
 -1        67 2.10095E+01 6.49301E-06-3.56343E+00 3.34126E+01-2.64437E+00 5.67091E+00
 -1        68 4.35511E+00-7.79850E-01-1.39912E+00-1.39172E+01-1.08933E+00 1.18596E+01
 -1        69 1.54209E+01 2.25049E-05-1.48318E-04 1.62507E+01-2.34356E-05-1.85819E+01
 -1        70 2.18469E+00 1.03170E+01 1.53713E+01 1.97515E+01-7.43241E+00 5.97282E+00
 -1        71 2.23220E+00 2.25939E+01-8.64040E+01 3.18313E+00-1.74987E+01 1.93902E+00
 -1        72 8.38163E-01 4.07927E+01 1.03688E+02 4.81330E+00-4.41489E+01 6.63589E-01
 -1        73-1.18595E-01-1.83590E+01 9.96654E+01 5.89598E+00 1.72037E+01 1.57239E-02
 -1        74 6.43818E-01-3.84003E+01-1.02005E+02 5.36170E+00 5.05277E+01-1.49710E-01
 -1        75 1.05887E+00 7.17528E+01 4.21806E+01-6.49634E+00-3.06534E+01-2.89850E+00
 -1        76-1.32124E+00 1.78969E+01 6.82884E+01 6.03640E+00-2.12725E+01-1.10594E-01
 -1        77 1.63550E+00 1.91295E+01 2.49803E+02-1.87124E+00-2.59548E+01 5.35123E-01
 -1        78 2.88221E+00 5.83899E+01 9.35627E+00-1.52969E+00-3.00387E+01 6.87519E-01
 -1        79 3.17826E+00 4.33189E+01 6.37744E+01 7.29930E+00-4.36260E+01 5.03849E+00
 -1        80 4.91741E+00 8.16458E+00 2.04061E+02 8.99124E+00-9.36033E+00-1.42528E+00
 -1        81-1.93257E-01-7.65661E+01 3.33952E+01-8.49930E+00 1.98336E+01-1.12993E+00
 -1        82-1.88660E+00-3.08616E+01 7.70621E+01 1.76830E+00 8.14029E+00-7.20145E-01
 -1        83 2.27784E+00-4.82703E+00 2.54015E+02-2.10714E+00 1.11236E+01-4.49014E+00
 -1        84 1.36939E+00 5.13943E+00 6.12713E+01 1.59622E+01 2.30640E+01 5.79451E+00
 -1        85-2.65444E-01-4.79740E+01 3.24653E+00-4.96096E-01 3.33680E+01 3.99848E+00
 -1        86 7.05086E-01-6.22567E+01-4.11936E+01-7.10643E+00 3.52952E+01-3.99478E+00
 -1        87 2.11373E+00-1.23363E+01-7.06232E+01 4.70649E+00 2.51628E+01 2.25848E-01
 -1        88-6.69863E-01-1.96253E+01-2.29623E+02-1.23322E+00 2.88187E+01-1.29520E+00
 -1        89-4.20744E-01-2.65809E+01-4.62180E+01 7.31895E+00 4.24735E+01 3.06013E+00
 -1        90-1.42272E+00-4.82542E+00-1.66721E+02 7.19079E+00 9.11152E+00 3.76391E+00
 -1        91 2.56923E+00 8.79179E+01-2.57963E+01-7.82600E+00-1.63891E+01-8.33652E-03
 -1        92 6.87904E-01 3.31155E+01-7.03845E+01 1.07671E+00-9.81911E+00 4.67427E-01
 -1        93 2.47685E-01 4.05281E+00-4.27163E+01 1.19487E+01-2.19053E+01 5.97749E+00
 -1        94 1.18909E+00 2.32405E+00-2.33173E+02-4.86683E+00-8.90752E+00-5.81067E+00
 -1        95-3.58202E+00-1.16628E+01-2.07231E+02 2.72487E+01 1.00509E+01-1.57051E+01
 -1        96-5.55962E+00-4.95494E+00-2.15735E+02 1.02606E+01-7.95365E+00-2.47564E+01
 -1        97 3.50971E+00-9.20851E+00-1.84615E+02 4.07211E+00 2.16558E+01 3.56873E+00
 -1        98 1.62175E+00 2.48475E+00-7.06576E+01 1.10382E+01 1.63247E+01 2.54979E+01
 -1        99-5.95260E+00-5.67955E+00-6.45141E+01 8.99633E+00-6.30347E+00-5.36854E+01
 -1       100 2.32267E+01-1.66159E+00-2.40757E+01-1.53381E+00 5.71094E+00 3.39604E+01
 -1       101-6.52720E+00 9.88105E-01-4.01229E+01 1.75847E+01 2.17079E+00 1.04737E+01
 -1       102-1.19564E+01-6.21956E+00-9.51014E+01 2.54896E+01 4.09578E+00-1.91673E+01
 -1       103-6.77270E+00 1.24337E+00-1.60474E+02 1.33759E+01 1.66187E+01 9.81826E+00
 -1       104-3.64633E+00-9.54958E+00-1.37237E+02 1.87450E+01-3.46087E+00-3.12659E+01
 -1       105-1.52001E+01 2.51394E+00-3.74875E+01 2.20036E+01-2.40414E+00-4.57957E+01
 -1       106 8.76293E+00-5.95507E+00-2.43291E+01-1.29990E+01-2.97299E+00-6.33150E+01
 -1       107-2.39021E-01-1.20085E+01-2.24560E+02 2.29756E+01-7.41561E+00-2.75754E+01
 -1       108-9.12234E+00 6.80482E+00-1.12410E+02-5.52847E+00 6.68550E-01-4.19089E+01
 -1       109-5.26663E-02 7.88772E+00-1.37536E+02 7.21888E+00 3.58285E+00-3.91959E+01
 -1       110-1.46932E+00-3.21678E+00-3.18761E+02 4.69551E+00-4.27228E-01-8.74749E+00
 -1       111-3.85312E+00-1.47384E+01-2.99005E+02 2.13274E+00-9.20220E+00-1.03901E+01
 -1       112-1.70369E+00 1.10367E+01-1.28293E+02 2.78912E+00-5.65113E+00-1.37780E+01
 -1       113 3.25399E+00-3.65655E+00-2.33820E+02 9.91927E+00 2.08772E+01 3.89673E+00
 -1       114-1.47460E+00 2.78699E+00-2.95067E+02 6.09756E-01 1.53175E+01-3.70634E+00
 -1       115-6.78049E-01-1.02858E+01-1.38340E+02-1.22614E+00 1.73396E+01 1.36963E+01
 -1       116 1.42850E+00-4.09785E+00-9.19453E+01-9.14553E+00 7.50442E+00 1.26290E+01
 -1       117 5.09808E+00-3.78159E+00-9.96661E+01 9.93870E-01 1.14841E+01-6.55585E-01
 -1       118 5.25245E-01 4.80683E+00-5.33753E+01-6.25655E+00 9.10112E+00 2.16240E+01
 -1       119-1.03032E+01 6.57029E+00-5.46505E+01-8.73949E+00-2.73036E+00-4.76368E+01
 -1       120 8.80711E+00 1.74023E+01 2.13616E+02 2.75234E+01-7.88557E+00-1.55875E+01
 -1       121-3.32173E+00-3.08128E+00 2.02992E+02 9.11232E+00 1.22617E+01-1.83176E+01
 -1       122 5.08123E+00-3.18587E+00 7.27216E+01 5.96469E+00 7.87638E+00-5.21202E+01
 -1       123-9.07092E-01 1.30919E+01 1.90245E+02 2.41823E+00-3.26445E+01-4.02024E+00
 -1       124 8.00007E-02 3.27471E+00 6.17458E+01 8.14404E+00-7.45790E+00 3.36352E+01
 -1       125-7.28135E-01 4.31567E+00 1.03690E+02-6.74796E+00-2.16954E+01 3.78214E+00
 -1       126 8.56079E-01 1.06373E+01 2.38347E+02 8.65153E+00-3.25664E+01 4.24315E-01
 -1       127 1.75855E+00 8.00300E+00 1.50064E+02-1.14640E+00-2.48719E+01 1.55763E+00
 -1       128-3.49004E+00 4.43733E+00 1.06981E+02-9.26721E-02-1.31560E+01 1.21860E+00
 -1       129-9.01773E-01 3.86280E+00 4.80793E+01-5.74367E+00-7.15182E+00 2.58367E+01
 -1       130 1.35531E+01-7.63211E-01 1.64570E+02 1.47561E+01-1.95839E+01 3.96216E+00
 -1       131-3.03562E+01 1.91970E+00 2.08612E+01-3.40071E+00-7.93656E-01 3.82264E+01
 -1       132-1.50382E+01-1.33388E+01 1.03479E+02-1.09345E+01 5.65981E+00-3.24074E+01
 -1       133-2.51106E+00-2.17312E+00 1.30115E+02 5.12075E+00-2.66506E+00-3.89339E+01
 -1       134 5.10849E+00 8.13615E+00 2.17704E+02 2.20523E+01 3.64573E+00-2.12331E+01
 -1       135-5.35189E+00-8.66638E+00 1.23633E+02 5.60397E+00 5.39567E+00-1.15736E+01
 -1       136-9.49460E-01 4.05201E+00 3.19438E+02 4.73665E-01 9.76533E+00-8.04997E+00
 -1       137 3.05087E+00 1.17184E+01 3.21714E+02 6.61963E+00-1.18834E+01-5.09895E+00
 -1       138 1.51353E+01-6.19191E+00 4.39100E+01 1.55624E+01 2.09771E+00-3.40522E+01
 -1       139 1.30399E+01-8.37558E-01 1.19423E+02 1.77198E+01-1.58160E+00-2.04444E+01
 -1       140 1.05931E+01 1.08072E+01 1.34895E+02 1.51484E+01 2.36993E+00-3.89180E+01
 -1       141-4.81678E+00 5.44732E-01 2.84724E+01-1.34431E+01 1.97605E+00-6.16997E+01
 -1       142-8.34381E+00-9.83065E+00 6.10293E+01-5.42365E+00 5.35631E+00-5.00207E+01
 -1       143 9.00109E-01 9.37941E+00 3.01084E+02-1.60954E+00-2.49411E+01-4.49666E+00
 -1       144 5.96705E+00 2.55443E+00 3.66310E+01 1.58505E+01-2.76351E-01 1.56815E+01
 -1       145 3.31741E-01-6.67887E+01-1.57236E+01-4.97342E+01 3.46164E+01 1.05550E+01
 -1       146-1.51836E+01-2.51255E+01-4.69443E+00-5.47629E+01 1.55022E+01-3.22308E+00
 -1       147-5.48436E+00-9.12260E+01 1.91927E+01-3.77663E+01 2.11844E+01 1.11195E+01
 -1       148-1.99960E+00-2.22089E+01-2.42066E+00-2.98386E+01 2.33904E+01-1.00563E+00
 -1       149 1.08678E+01-9.98376E+00 4.65508E+00-4.05850E+01 9.70785E+00-3.51210E+00
 -1       150 6.80869E+00-9.12542E+00 7.28264E-01-3.90975E+01 5.79725E+00 1.47426E+00
 -1       151 3.93688E+01-3.48172E+00 7.68961E+00-2.59099E+01 2.91423E+00 1.37045E+01
 -1       152-7.75668E+00-3.35431E+01-3.15686E+00-4.94276E+01 1.86990E+01 8.00719E+00
 -1       153-2.30817E+01-1.81897E+01 5.87594E+00-5.88600E+01 6.74768E+00 7.56757E+00
 -1       154-2.50840E+00-4.99886E+01-1.52949E+01-4.90192E+01 2.32079E+01 6.41408E+00
 -1       155 1.59683E+00-4.18258E+01 1.25741E+00-5.37825E+01 1.63669E+01-6.99488E+00
 -1       156-2.79700E+01-4.33439E+00-8.53158E+00-5.97316E+01 4.56070E+00-1.97982E+01
 -1       157 1.97504E+00 4.55119E+00-1.18821E+00-3.46860E+01 7.39759E+00 3.56966E+00
 -1       158-1.77167E+01-2.23524E+01 4.31927E+00-4.68785E+01 1.47118E+01-1.02394E+01
 -1       159-2.28097E+00-5.30398E+01-1.08372E+01-5.56210E+01 1.79525E+01 6.91919E-01
 -1       160-7.97982E+00-4.46089E+01 6.37389E-01-4.79227E+01 1.27073E+01-3.87069E+00
 -1       161 1.63962E+00-8.91502E+01-5.21908E+00-4.95659E+01 1.50065E+01 1.44570E+01
 -1       162-5.19295E+00-6.46688E+01 1.66226E+01-2.27279E+01 1.02891E+01 6.16127E+00
 -1       163-2.08040E+00-1.13643E+02 5.44353E+00-2.62444E+01 2.34129E+01 1.36634E+00
 -1       164 2.09337E+00-1.12014E+02 2.67055E+00-3.66753E+01 3.00540E+01-1.37408E+00
 -1       165-3.24885E+00-6.80454E+01 7.61324E+00-2.95005E+01 2.81135E+01-8.36021E-01
 -1       166 1.58983E+00-5.54428E+01-4.34882E+00-3.86778E+01 3.80184E+01 2.05344E-01
 -1       167-1.25899E+00-2.21301E+00-9.96300E+00-2.28091E+01 8.74065E+00 1.35318E+00
 -1       168 3.15272E+00-2.63978E+01-1.46395E+01-3.61390E+01 2.58788E+01-1.72416E+00
 -1       169 1.36102E+00 4.09156E+00-1.15363E+01-1.74258E+01 1.13865E+01-1.98345E+00
 -1       170 2.12290E+00 6.49095E+01 6.54071E+00-4.07133E+01-3.82078E+01 1.19648E+01
 -1       171-1.27235E+00 3.21504E+01-5.31951E+00-2.66197E+01-1.60850E+01-7.94376E+00
 -1       172-2.93485E+00 8.84359E+01-2.82544E+01-3.38841E+01-2.57660E+01 1.08075E+01
 -1       173-1.75892E+01 6.81673E+00 3.15953E+00-3.67829E+01-1.28627E+01-6.05548E-01
 -1       174 7.85511E+00 3.37832E+01 3.25425E+00-7.20166E+01-4.52525E+00 7.53017E+00
 -1       175-5.11823E+00-1.50113E+00 1.77519E+01-3.07222E+01-8.18964E+00 5.48293E+00
 -1       176-4.70197E+01 1.82658E+00-3.53945E+00-2.61651E+01-3.88023E+00 1.27419E+01
 -1       177-1.61612E+00 4.81114E+01-2.93682E+00-5.76947E+01-3.11371E+01 1.59018E+00
 -1       178 5.98048E+00 3.78045E+01 2.40652E+00-3.91622E+01-2.55470E+01 1.03822E+01
 -1       179 7.35136E+00 9.75717E+00-2.93744E+00-2.00226E+01-1.28807E+01-3.99041E+00
 -1       180-5.71676E+00-1.43382E-01 1.03379E+01-1.95939E+01-6.87196E+00-2.57722E+00
 -1       181-1.65383E+00 6.31965E+01-1.50398E+01-2.60833E+01-1.68289E+01-2.06522E+00
 -1       182-1.40114E+01 3.96672E+01-1.57598E+01-4.25770E+01-1.50941E+01-1.20322E+01
 -1       183 2.32377E+00 8.56653E+01-7.40124E+00-3.68076E+01-4.07741E+01 1.88082E+01
 -1       184-2.98155E+00 4.18664E+01 7.39510E+00-4.79045E+01-2.22045E+01 1.91157E+00
 -1       185-3.52637E+00 5.95980E+01-1.46882E+01-1.71298E+01-1.15799E+01 9.95416E+00
 -1       186-3.53097E+00 1.32140E+02-1.98900E+00-2.08678E+01-1.93994E+01 2.39238E+00
 -1       187-2.47125E+00 9.72175E+01 4.24288E+00-2.64667E+01-3.47442E+01 2.31946E+00
 -1       188-1.36994E+01 5.95997E+00 2.26926E+00-3.89338E+01-9.18866E+00 2.62812E+00
 -1       189 4.44338E+00 3.85696E+01-2.99291E+00-5.19135E+01-1.88048E+01 1.03393E+01
 -1       190-8.32813E+00 2.91525E+01-4.16171E+00-5.39388E+01-2.38137E+00-6.01141E+00
 -1       191 8.30506E+00 4.50837E+01 3.01867E+00-6.66097E+01-1.16487E+01 1.56102E+01
 -1       192 3.31731E+01 1.38237E+01 7.21519E+00-5.92070E+01-1.05348E+00-2.11246E+01
 -1       193 1.08234E+01 1.73900E+01 5.31955E-01-5.70713E+01-6.08328E+00 1.07786E+01
 -1       194-4.64581E-01 7.92357E+01-1.50945E+01-2.29417E+01-1.88173E+01-4.83561E+00
 -1       195 3.80845E+00 1.64427E+01 3.13271E+01 3.59080E+01-2.17577E+01 1.22252E+01
 -1       196 2.68630E+00-2.77535E+01-4.85479E+01 2.66718E+01 4.90274E+01 6.61905E+00
 -1       197-4.52342E+00 1.34036E+00-2.42479E+01 1.25390E+01 1.65645E+01 2.10356E+01
 -1       198-1.18952E+01-4.15027E+00-7.35508E+01 2.16874E+01 2.01849E+01 6.30475E+00
 -1       199 9.15346E-01-1.26930E+01-6.99591E+01 1.61068E+01 3.18408E+01 9.56778E+00
 -1       200-5.18036E-01-1.99582E+01-1.34251E+02 2.50334E+01 2.57775E+01-3.09424E+00
 -1       201-3.21239E+00-2.11007E+01-1.51695E+01 2.14234E+01 2.97485E+01 7.47246E+00
 -1       202-5.15403E+00-4.31655E+01 6.85628E+01-2.66643E+01 1.89400E+01-7.03331E-01
 -1       203-5.66081E+00-4.21749E+01 9.91787E+01-1.59017E+01 1.55504E+01-1.68366E+00
 -1       204 2.28741E+00-1.86130E+01 7.18849E+01 1.87457E+01 3.50987E+01 1.56985E-01
 -1       205 5.57223E-02-4.81524E+01-6.45951E-01-3.19122E+00 4.06820E+01 8.22657E+00
 -1       206 1.64294E+00-4.87503E+01-2.37097E+01-7.26197E+00 4.72921E+01 1.09324E+01
 -1       207 1.75171E-01 2.00311E+00 1.23564E+02 1.09443E+01 1.74279E+01-8.84221E-01
 -1       208 5.98438E-02-7.80129E+00 1.59127E+02 7.33067E+00 1.45961E+01-6.90523E+00
 -1       209-3.21185E+00 4.74383E+01 5.00391E+01-1.50845E+01-4.45612E+01 1.59764E+00
 -1       210-1.36459E+00 3.35396E+01 5.23236E+01-1.00640E+01-3.34890E+01-3.21646E+00
 -1       211 4.34087E-01 4.07579E+01-2.64699E+01-2.41402E+00-2.43219E+01 4.31738E+00
 -1       212 1.00060E+00 6.06605E+01-5.34028E+01-1.07761E+01-1.91528E+01 8.06633E+00
 -1       213-1.33422E+00 2.38635E+01-2.55564E+01-2.04569E+01-1.82519E+01-1.67240E+01
 -1       214 2.66289E+00 1.14328E+01-2.67901E+01-2.92267E+01-6.89979E+00-2.62417E+01
 -1       215 1.54492E+00-3.92736E+00-5.19524E-01-1.37183E+01 9.40749E+00 1.15872E+01
 -1       216-4.31660E+00-2.39779E+01-4.48868E+00-1.75701E+01 2.63701E+01 1.45841E+01
 -1       217 2.62418E+00 2.28044E+01 1.15773E+02 1.13372E+01-3.25863E+01 3.93987E-01
 -1       218 1.12296E+00 2.80852E+01 1.45717E+02 2.17864E+00-3.91462E+01-2.50421E+00
 -1       219 4.43477E+00 1.15739E+01 1.28607E+02 1.92093E+01-1.16621E+01 9.38323E-01
 -1       220 7.20778E+00 6.87658E-01 6.57694E+01 3.49247E+01 2.22428E+01 4.53963E+00
 -1       221 1.59504E+00-7.92282E+00-1.82574E+01 2.34589E+01 2.29978E+01 5.21721E+00
 -1       222 1.61169E+00 3.79585E+01 8.17051E+00-2.55926E+00-4.40436E+01 7.50504E+00
 -1       223 2.24572E+00 2.10687E+01-5.76154E+01 5.30527E+00-6.66266E+00 1.08813E+01
 -1       224 5.50723E+00 1.52650E+01-1.69357E+01 1.14796E+01-9.64120E+00 1.31626E+01
 -1       225-1.98634E+00 2.41415E+01-8.16017E+01 2.81746E+00-1.76503E+01-6.14360E+00
 -1       226-2.68495E+00 8.38337E+00-2.21312E+01 1.97031E+01-1.04931E+01-8.09474E+00
 -1       227 1.41972E+00 2.23329E+00-6.81231E+01 2.66724E+01-7.83541E+00 6.74956E+00
 -1       228 5.92529E-01 3.88482E+01 1.76789E+01-3.05779E+00-3.44151E+01 7.86713E+00
 -1       229-2.48009E+00-8.04614E+00-7.37857E+00 2.43550E+00 2.10838E+01 1.09114E+01
 -1       230 3.78803E-01-1.24952E+01-1.84140E+01 3.23970E+01 1.88653E+01 6.64043E+00
 -1       231-2.23236E+00 1.64013E+01 1.08685E+02 1.45151E+01-3.19572E+01-4.28814E+00
 -1       232 2.62265E+00 2.83248E+01 2.16853E+01 2.52883E+01-3.07849E+01 3.78680E+00
 -1       233 5.49491E+00 1.77497E+01 1.18271E+02 3.14167E+01-9.16018E+00 2.78464E+00
 -1       234-9.09871E+00-5.45779E+00-6.37189E+01 2.93828E+01 8.08302E+00 1.61626E+00
 -1       235-1.22141E+00-2.31813E+01 7.57398E+01-8.01536E+00 1.54267E+01-7.01660E-01
 -1       236 5.84275E+00-2.07637E+01 1.21362E+01 5.65885E+00 1.41495E+01 1.10210E+01
 -1       237 4.87314E+00 7.05701E+00 1.00436E+01 3.50663E+01-9.52693E+00 1.13018E+01
 -1       238 3.08228E+00-4.97139E+00-2.19084E+00 3.09123E+01 1.10594E+01 7.71303E+00
 -1       239 3.59804E-01-2.96161E+01-5.24184E+01-1.03396E+01 3.91470E+01-6.62286E-01
 -1       240 1.12715E+00-5.17188E+01-2.50371E+01-2.18828E+00 4.65717E+01 2.74292E+00
 -1       241 1.13735E+00-3.34782E+01-7.29921E+01 1.15271E+01 6.06634E+01 1.97742E+00
 -1       242-9.12491E-01-2.70253E+01-3.68620E+01-8.45466E+00 4.70997E+01 3.32455E+00
 -1       243 1.07796E+00-2.33688E+01-1.45453E+02 4.14078E+00 3.99408E+01 3.98265E-01
 -1       244-2.17946E-01-1.76268E+01-1.83415E+02 1.19851E+01 2.73619E+01 2.79295E-01
 -1       245 3.35279E+00-2.10733E+01-1.17308E+02 1.14313E+01 4.81121E+01 4.73417E-01
 -1       246 2.37798E+00-1.52876E+01-7.95325E+01-1.05765E+01 1.83178E+01 2.51126E-01
 -1       247 1.46991E+00-1.40516E+01-4.78534E+01-3.68834E+00 3.24188E+01 4.74094E+00
 -1       248-1.06090E+01 4.61197E+00 2.69877E+01-1.29007E+01-8.54345E+00 1.49051E+01
 -1       249 4.39248E+00 1.03054E+01 5.28035E+01 2.19942E+01-2.39260E+01 2.17782E+01
 -1       250-8.02440E+00 1.27938E+01 1.96653E+01 1.90285E+00-2.76558E+01 7.90381E+00
 -1       251-1.80062E+00 1.12441E+01 3.66149E+01 5.70841E+00-2.34446E+01 7.90849E+00
 -1       252 6.21613E+00 2.77571E-01 2.74981E+01 6.63849E+00-6.64994E+00 2.26954E+01
 -1       253 1.26105E+01 5.02073E+00 3.04273E+01 3.01538E+01-8.67741E+00 4.67345E+00
 -1       254 1.21625E+01 8.15563E+00 1.54678E+01 2.28860E+01-2.14777E+01 1.51539E+01
 -1       255-1.73020E+00 3.28158E+00 3.63760E+00-1.44676E+01-9.01575E+00 7.68153E+00
 -1       256 3.99504E+00 6.54543E+00 8.12509E+00 1.64258E+00-1.54179E+01 1.22584E+01
 -1       257 6.99301E+00 7.23517E+00 6.44643E+01 1.98721E+01 3.87054E+00-6.95467E+00
 -1       258-9.60856E-01-1.88077E+01-1.33626E+02 2.05390E+01 5.52717E+00-2.40325E+00
 -1       259 3.27438E+00 5.97126E+00 5.88810E-01 1.83671E+01-1.09144E+01 4.05549E+00
 -1       260 4.76610E+00-1.62605E+00 2.75635E+01 3.83029E-01 5.76013E+00-3.64274E+01
 -1       261-8.19310E+00-7.81472E+00 1.54389E-01-3.45037E+01 5.93092E+00-8.87210E+00
 -1       262-4.58797E+00-6.24381E+01 5.96327E+01-1.48035E+01 2.09531E+01 4.10267E+00
 -1       263-4.20409E+00 3.85489E+01-1.10870E+02-1.20970E+01-1.29500E+01-1.06594E+01
 -1       264 4.29396E+00 1.51853E+01-1.46210E+00-3.50573E+01-2.05298E+00-1.03179E+01
 -1       265 1.12931E+01-4.33227E+00-2.41740E+01-1.20721E+01 1.50920E+01 1.24569E+01
 -1       266-4.58163E+00-2.43671E+00-2.63750E+01 3.12865E+00-2.64171E+00-3.52950E+01
 -1       267-1.60181E-01 2.01098E+01 8.13945E+01-1.27146E+01-2.48222E+01-6.36446E+00
 -1       268-6.82513E+00-1.02222E+01 3.14235E+01-2.16125E+01 1.21259E+01-2.86355E+01
 -1       269-1.85594E+00 7.66847E+00-1.55667E+02 4.64278E+00-1.32228E+01-9.15041E+00
 -1       270-3.00550E+00-3.85199E+01 3.52384E+01-5.06084E+00 2.98896E+01 8.30567E+00
 -1       271-5.58054E+00-7.86685E+00 8.46810E-01 1.84033E+00 1.00823E+01 5.25976E+00
 -1       272 1.77626E+00-9.20591E+00 2.54683E+01 3.94562E+00 8.47009E+00 3.05967E+00
 -1       273 4.43165E+00-2.75986E+01-3.20505E+01-1.87782E+01 2.96221E+01 8.28617E+00
 -1       274-2.50935E+00 2.86429E+01-1.26334E+02 6.09559E-01-1.20091E+01-1.50477E+01
 -1       275-2.15540E+00-1.68475E+00-1.12012E+02 1.55051E+01-1.10645E+01-5.05977E+00
 -1       276-1.21942E+01-2.84040E+00-1.81203E+01 1.92294E+01-1.54909E+00-1.26084E+01
 -1       277-1.18292E+00 3.61735E+01 7.25540E+01-1.60829E+01-3.63852E+01-2.31431E+00
 -1       278-4.36412E+00-5.14166E+00 8.72538E+01-9.46519E+00 1.00383E+01-1.90320E+01
 -1       279 6.30851E+00 2.84384E+01-6.56394E+00-2.78271E+01-9.60833E+00-4.55629E+00
 -1       280 1.49332E+01-4.08510E+00 2.80456E+01 2.06966E+01 5.17032E+00-9.40615E+00
 -3
    1PSTEP                        25           1           1          
    1PGM                1.000000E+00                                  
    1PGK                2.105682E+12                                  
    1PHID                         -1                                  
    1PSUBC                         0                                  
    1PMODE                         9                                  
  100CL  109 2.30949E+05         280                     2    9MODAL      1
 -4  DISP        4    1
 -5  D1          1    2    1    0
 -5  D2          1    2    2    0
 -5  D3          1    2    3    0
 -5  ALL         1    2    0    0    1ALL
 -1         1 0.00000E+00 0.00000E+00 0.00000E+00
 -1         2 0.00000E+00 0.00000E+00 0.00000E+00
 -1         3 0.00000E+00 0.00000E+00 0.00000E+00
 -1         4 0.00000E+00 0.00000E+00 0.00000E+00
 -1         5 7.86294E+01 1.34167E+03-1.05460E+03
 -1         6-2.22148E+02-9.75462E+02-2.98386E+02
 -1         7 1.34260E+02-9.06345E+02-2.93246E+02
 -1         8-9.14675E+01 1.40451E+03-1.03238E+03
 -1         9 0.00000E+00 0.00000E+00 0.00000E+00
 -1        10 0.00000E+00 0.00000E+00 0.00000E+00
 -1        11 0.00000E+00 0.00000E+00 0.00000E+00
 -1        12 0.00000E+00 0.00000E+00 0.00000E+00
 -1        13 0.00000E+00 0.00000E+00 0.00000E+00
 -1        14 0.00000E+00 0.00000E+00 0.00000E+00
 -1        15 0.00000E+00 0.00000E+00 0.00000E+00
 -1        16 0.00000E+00 0.00000E+00 0.00000E+00
 -1        17 0.00000E+00 0.00000E+00 0.00000E+00
 -1        18 0.00000E+00 0.00000E+00 0.00000E+00
 -1        19 0.00000E+00 0.00000E+00 0.00000E+00
 -1        20 0.00000E+00 0.00000E+00 0.00000E+00
 -1        21 1.83345E+01-1.40114E+02-5.17480E+02
 -1        22 8.81146E+01 4.54873E+02-8.20941E+02
 -1        23-1.08297E+02-5.27264E+02-2.87028E+02
 -1        24-7.11226E+01 1.62695E+02 4.01274E+02
 -1        25-4.30924E+01 9.76427E+02-1.22071E+02
 -1        26 6.87732E+00-6.19351E+02 2.02959E+02
 -1        27-4.49802E+01-1.00957E+02-4.72722E+02
 -1        28 5.81124E+01-4.69855E+02-2.79309E+02
 -1        29-1.03772E+02 5.00149E+02-8.05000E+02
 -1        30 7.60575E+01 1.39347E+02 4.20645E+02
 -1        31-3.29035E+01-6.74193E+02 2.08985E+02
 -1        32 3.92311E+01 1.01329E+03-8.46779E+01
 -1        33 7.20713E+01 8.23866E+02-6.53190E+02
 -1        34 5.57890E+01 4.09758E+02-3.17841E+02
 -1        35 6.59181E+01 1.10792E+03-8.80234E+02
 -1        36-1.70806E+02-5.47215E+02-1.99497E+02
 -1        37-1.24727E+02-2.62752E+02-1.10607E+02
 -1        38-1.83616E+02-7.69323E+02-2.66456E+02
 -1        39 1.51733E+02-5.61979E+02-1.74985E+02
 -1        40 1.30842E+02-2.69091E+02-1.04289E+02
 -1        41 1.22098E+02-7.64838E+02-2.43559E+02
 -1        42-9.13662E+01 8.58191E+02-6.63516E+02
 -1        43-7.01077E+01 4.10711E+02-3.30743E+02
 -1        44-8.03841E+01 1.15654E+03-8.62446E+02
 -1        45 0.00000E+00 0.00000E+00 0.00000E+00
 -1        46 0.00000E+00 0.00000E+00 0.00000E+00
 -1        47 0.00000E+00 0.00000E+00 0.00000E+00
 -1        48 0.00000E+00 0.00000E+00 0.00000E+00
 -1        49 0.00000E+00 0.00000E+00 0.00000E+00
 -1        50 0.00000E+00 0.00000E+00 0.00000E+00
 -1        51 0.00000E+00 0.00000E+00 0.00000E+00
 -1        52 0.00000E+00 0.00000E+00 0.00000E+00
 -1        53 0.00000E+00 0.00000E+00 0.00000E+00
 -1        54 0.00000E+00 0.00000E+00 0.00000E+00
 -1        55 0.00000E+00 0.00000E+00 0.00000E+00
 -1        56 0.00000E+00 0.00000E+00 0.00000E+00
 -1        57 0.00000E+00 0.00000E+00 0.00000E+00
 -1        58 0.00000E+00 0.00000E+00 0.00000E+00
 -1        59 0.00000E+00 0.00000E+00 0.00000E+00
 -1        60 0.00000E+00 0.00000E+00 0.00000E+00
 -1        61 0.00000E+00 0.00000E+00 0.00000E+00
 -1        62 0.00000E+00 0.00000E+00 0.00000E+00
 -1        63 0.00000E+00 0.00000E+00 0.00000E+00
 -1        64 0.00000E+00 0.00000E+00 0.00000E+00
 -1        65 0.00000E+00 0.00000E+00 0.00000E+00
 -1        66 0.00000E+00 0.00000E+00 0.00000E+00
 -1        67 0.00000E+00 0.00000E+00 0.00000E+00
 -1        68 0.00000E+00 0.00000E+00 0.00000E+00
 -1        69 0.00000E+00 0.00000E+00 0.00000E+00
 -1        70 1.91562E+01-1.10483E+02 3.81107E+02
 -1        71 3.06440E+00-3.87141E+02 1.62516E+02
 -1        72 1.43168E+01 3.64367E+02-5.98467E+01
 -1        73-8.21262E+00-3.48197E+02 1.57284E+02
 -1        74-1.99897E+00 3.18477E+02-7.33845E+01
 -1        75 7.16803E+01 3.90017E+02 2.41950E+02
 -1        76-3.33345E+01 8.47931E+02-4.97661E+02
 -1        77-4.23757E+01 1.45943E+02-3.29470E+02
 -1        78 7.26410E+01 2.79412E-01 3.81410E+02
 -1        79 3.30992E+01 3.47710E+01 2.31813E+02
 -1        80-1.65258E+01-9.83230E+01 1.27378E+01
 -1        81-4.16256E+01-2.25470E+02 3.44784E+02
 -1        82 5.48616E+01-6.13322E+02-3.52782E+01
 -1        83-7.23649E+00-2.73961E+02-1.29310E+02
 -1        84-2.32216E+01-1.72574E+02 2.89310E+02
 -1        85-4.55666E+01-8.81369E+00 3.61753E+02
 -1        86-5.31762E+01 3.59979E+02 2.12282E+02
 -1        87 3.05471E+01 7.95291E+02-5.23630E+02
 -1        88 3.66538E+01 1.08095E+02-3.41468E+02
 -1        89-1.91804E+00 9.75718E+00 2.21683E+02
 -1        90 2.65496E+01-1.34184E+02 3.14216E+01
 -1        91 4.91605E+01-2.54216E+02 3.58148E+02
 -1        92-9.45148E+01-6.72620E+02-3.84937E+01
 -1        93 4.28457E+01-1.90648E+02 2.96603E+02
 -1        94-8.85297E+00-3.20691E+02-1.33532E+02
 -1        95-3.22770E+00-6.88597E+01-3.52922E+02
 -1        96-1.07348E+02-4.43910E+02-3.33994E+02
 -1        97 1.04055E+02 3.55617E+02-7.39249E+02
 -1        98 9.87138E+01 1.00710E+02-2.90643E+02
 -1        99-7.92388E+01-1.34140E+02-1.48019E+02
 -1       100 8.10488E+01 1.02399E+02-1.53690E+02
 -1       101 3.19066E+01 1.98371E+00-1.12045E+02
 -1       102 2.28851E+00-3.68365E+01-1.78732E+02
 -1       103 5.80251E+01 3.69935E+01-3.34897E+02
 -1       104-4.67707E+01-1.24533E+02-2.33340E+02
 -1       105-3.27364E+01-4.01119E+01-7.92614E+01
 -1       106-7.63129E+01-7.79013E+01-6.59060E+01
 -1       107-5.02939E+01-2.37851E+02-3.44740E+02
 -1       108-1.55943E+02-5.06437E+02-2.45458E+02
 -1       109-1.06348E+02-2.80533E+02-2.32285E+02
 -1       110 1.12711E+01-1.04896E+02-4.62079E+02
 -1       111-4.23024E+01-3.18069E+02-4.06001E+02
 -1       112-1.70322E+02-6.56740E+02-2.98847E+02
 -1       113 6.63549E+01 7.35969E+01-5.21313E+02
 -1       114 6.41176E+01 1.02639E+02-6.50320E+02
 -1       115 1.01167E+02 2.51903E+02-5.23578E+02
 -1       116 1.08949E+02 6.07397E+02-7.30250E+02
 -1       117 1.03519E+02 7.89783E+02-9.23950E+02
 -1       118 1.08965E+02 3.91600E+02-4.68281E+02
 -1       119-1.38216E+02-3.03552E+02-1.64324E+02
 -1       120-6.09764E+00-8.59170E+01-3.77576E+02
 -1       121 7.53960E+01-4.37969E+02-3.21881E+02
 -1       122 7.10650E+01-1.49627E+02-1.25157E+02
 -1       123-1.22632E+02 4.06735E+02-7.65383E+02
 -1       124-1.08250E+02 1.24141E+02-2.75820E+02
 -1       125-1.19637E+02 6.57573E+02-7.37252E+02
 -1       126-7.76263E+01 9.16950E+01-5.57241E+02
 -1       127-1.12498E+02 2.69480E+02-5.35958E+02
 -1       128-1.16219E+02 8.40170E+02-9.15134E+02
 -1       129-1.31942E+02 4.04235E+02-4.69988E+02
 -1       130-6.53797E+01 4.55869E+01-3.36280E+02
 -1       131-8.92636E+01 1.07510E+02-1.53605E+02
 -1       132 1.20974E+02-5.07110E+02-2.27293E+02
 -1       133 8.64337E+01-2.96474E+02-2.24886E+02
 -1       134 3.27471E+01-2.52138E+02-3.46535E+02
 -1       135 1.08205E+02-6.25022E+02-2.84786E+02
 -1       136 1.03415E+01-2.86104E+02-3.74260E+02
 -1       137-2.96431E+01-1.05655E+02-4.45390E+02
 -1       138 2.99691E+01-4.67831E+01-7.52798E+01
 -1       139-5.02580E+00-4.17136E+01-1.79953E+02
 -1       140 3.59645E+01-1.50520E+02-2.25779E+02
 -1       141 7.91184E+01-8.59700E+01-6.01308E+01
 -1       142 1.32168E+02-3.13656E+02-1.44472E+02
 -1       143-8.20778E+01 1.28213E+02-6.34057E+02
 -1       144-4.44062E+01 5.78592E+00-1.19654E+02
 -1       145-5.22687E+01 9.78028E+01 3.00291E+02
 -1       146 1.30444E+01-1.70519E+02 7.09459E+01
 -1       147 1.34968E+01-5.04796E+02 1.99943E+02
 -1       148-5.64748E+01 8.47790E+02-7.76660E+01
 -1       149-4.22577E+01 2.89356E+02-8.28288E+00
 -1       150-1.24618E+01 9.03080E+01 4.51765E+01
 -1       151-3.38343E+01 1.77915E+02-6.76444E+01
 -1       152-2.18167E+01 4.58277E+01 1.40711E+02
 -1       153 1.64008E+00-4.69141E+01 5.85832E+01
 -1       154-2.26245E+01-9.43650E+01 1.93844E+02
 -1       155-4.88453E+01 2.58304E+02 1.23280E+02
 -1       156 2.02404E+01-1.12059E+02-1.07309E+01
 -1       157-2.79728E+01 5.64715E+02-2.37129E+02
 -1       158 6.88589E+01-3.81818E+02-2.02066E+01
 -1       159 1.40264E+01-3.62381E+02 1.17061E+02
 -1       160 6.86638E+01-6.05873E+02-1.81940E+01
 -1       161-2.36896E+01-1.97243E+02 3.00851E+02
 -1       162 6.59351E+01-7.69481E+02-3.46201E+01
 -1       163-3.81892E+01-2.26676E+02 3.71920E+02
 -1       164-5.35201E+01 1.38480E+02 3.44755E+02
 -1       165-6.81982E+01 5.68762E+02 2.19376E+02
 -1       166-6.61285E+01 4.59521E+02 1.92748E+02
 -1       167-1.38603E+01 9.04015E+02-3.96851E+02
 -1       168-5.41550E+01 5.75265E+02-5.96751E+01
 -1       169-3.71711E+00 1.15151E+03-5.22035E+02
 -1       170 6.18986E+01 1.00054E+02 3.12398E+02
 -1       171 4.43173E+01 8.65528E+02-6.82216E+01
 -1       172-3.36188E+01-5.16453E+02 1.80440E+02
 -1       173 4.98353E+01 3.19912E+02-2.13712E+01
 -1       174-1.58621E+01-1.68777E+02 6.58649E+01
 -1       175 1.75294E+01 5.92322E+02-2.58758E+02
 -1       176 3.34263E+01 1.82390E+02-7.48937E+01
 -1       177 5.70347E+01 2.93489E+02 1.38902E+02
 -1       178 5.09994E+01 6.15032E+02-4.50944E+01
 -1       179 3.63515E+00 9.36639E+02-3.91912E+02
 -1       180-7.69943E+00 1.19734E+03-4.96673E+02
 -1       181 6.65307E+01 4.81007E+02 2.02802E+02
 -1       182-9.58703E+01-5.96222E+02-5.31246E+01
 -1       183 3.00275E+01-1.97352E+02 3.03404E+02
 -1       184-1.68058E+01-3.45724E+02 9.70184E+01
 -1       185-1.15934E+02-8.04566E+02-4.79154E+01
 -1       186 3.34406E+01-2.56970E+02 3.65461E+02
 -1       187 6.70970E+01 1.37303E+02 3.66940E+02
 -1       188 2.56151E+01 1.11991E+02 4.79791E+01
 -1       189 2.48151E+01 6.56749E+01 1.46539E+02
 -1       190-6.58917E+01-3.65071E+02-2.88274E+01
 -1       191 1.66802E+01-9.66831E+01 1.82223E+02
 -1       192-1.97299E+01-1.10429E+02-1.21105E+01
 -1       193-5.17391E+00-3.30106E+01 5.68450E+01
 -1       194 6.85306E+01 5.84064E+02 2.30618E+02
 -1       195 1.98603E+01-1.17019E+01 1.58283E+02
 -1       196-6.39684E+00-2.18489E+01 2.15763E+02
 -1       197 2.33239E+01 3.98477E+01-7.84835E+01
 -1       198 1.96327E+01 1.36075E+01-1.14300E+02
 -1       199 2.26173E+01 1.02214E+02-1.07159E+02
 -1       200 2.02806E+01-3.23304E+01-8.95762E+01
 -1       201-1.29987E+01 4.66481E+01 5.36344E+01
 -1       202 2.21313E+00-3.22257E+02 1.51749E+02
 -1       203 4.95885E+01-5.29010E+02-3.57324E+01
 -1       204-2.74591E+01-1.87490E+02 1.91924E+02
 -1       205-4.76192E+01-7.93206E+01 3.12021E+02
 -1       206-5.53348E+01 8.18264E+01 2.67340E+02
 -1       207-1.64928E+01-2.23037E+02 9.69204E+01
 -1       208 2.85599E+01-4.10578E+02-7.97344E+01
 -1       209 6.54715E+01 3.24475E+02 2.14930E+02
 -1       210 3.18848E+01 6.11234E+02-6.67656E+01
 -1       211 5.12074E+01-1.94327E+02 3.18731E+02
 -1       212-1.20202E+01-4.48850E+02 1.80253E+02
 -1       213 1.17305E+00-1.74932E+02 8.88973E+01
 -1       214-4.04243E+01-1.74960E+02-2.69435E+01
 -1       215-1.70654E+01 9.04151E+01-1.13439E+00
 -1       216-3.61589E+01 9.98801E+01 9.22719E+01
 -1       217-5.57169E+00 7.48284E+01-1.72706E+01
 -1       218-4.88494E+01 4.13436E+02-4.07719E+02
 -1       219-1.51264E+01-1.03893E+02 4.64275E+01
 -1       220-2.23691E+01-1.27152E+02 1.42415E+02
 -1       221 5.66524E+00-8.91987E+01 3.25662E+02
 -1       222 6.35686E+01-8.57946E+00 3.47238E+02
 -1       223 3.50149E+01-1.90265E+02 1.87207E+02
 -1       224 4.70054E+01-7.38119E+01 2.62276E+02
 -1       225 1.37031E+01-1.95956E+02 8.55110E+01
 -1       226 2.41101E+01-9.15841E+01 9.28536E+01
 -1       227 2.74595E+01-9.54569E+01 9.18877E+01
 -1       228 6.48356E+01 7.67616E+01 2.28530E+02
 -1       229-3.74964E+01-9.82502E+00 1.32662E+02
 -1       230-6.51173E+00-4.19576E+01 1.44837E+02
 -1       231-2.24934E+01 1.38797E+02-1.31872E+02
 -1       232 1.83896E+01-5.97288E+01 2.65834E+02
 -1       233-1.84103E+01-2.49618E+01-6.66827E+01
 -1       234 1.15593E+01-3.79828E+01 1.40494E+01
 -1       235-1.45994E+01-2.09927E+02 1.06151E+02
 -1       236-3.63406E+01-5.92868E+01 2.22689E+02
 -1       237 6.78236E+00-2.12334E+01 9.32635E+01
 -1       238 7.38725E+00-7.23920E+01 2.37174E+02
 -1       239-2.56299E+01 5.81807E+02-8.97157E+01
 -1       240-5.38140E+01 1.25870E+02 3.06915E+02
 -1       241-6.31654E+00 1.09157E+02 1.04069E+02
 -1       242-3.37741E+01 2.84729E+02 8.63854E+01
 -1       243 4.42904E+01 3.75581E+02-4.25719E+02
 -1       244 2.75443E+01-3.41391E+01-1.31353E+02
 -1       245 2.49789E+01 1.59820E+02-1.82999E+02
 -1       246 2.81868E+01 6.59056E+02-4.46446E+02
 -1       247 6.62185E+00 3.47958E+02-1.81715E+02
 -1       248-2.32879E+01 2.37372E+02-1.60423E+02
 -1       249-1.90753E+01 7.51870E+01-8.44105E+01
 -1       250 3.71857E+01 1.46572E+02 6.01009E+01
 -1       251-4.93496E+00 2.95956E+02-1.40604E+02
 -1       252-1.91359E+01 4.84323E+01-6.94218E+01
 -1       253-1.36988E+01-1.54022E+01-3.57598E+01
 -1       254 1.14438E+01 2.49833E+01 3.68090E+01
 -1       255 1.51869E+01 8.84948E+01-9.65192E+00
 -1       256 4.14207E+01 3.84300E+01 8.71822E+01
 -1       257-9.03657E+00-8.30440E+01-2.13138E+01
 -1       258 1.33924E+01-1.54519E+02-5.84716E+01
 -1       259 2.76604E+01-3.04309E+01 9.42766E+01
 -1       260 1.28039E+01-6.21198E+01-2.38764E+01
 -1       261-1.94301E+00-6.49674E+01 2.58802E+01
 -1       262-3.30041E-01-4.24638E+02 1.85367E+02
 -1       263-8.35493E+01-5.34801E+02-6.25299E+01
 -1       264 5.54863E+00-5.51277E+01 3.04633E+01
 -1       265 1.41345E+01 2.37014E+02-1.44007E+02
 -1       266-1.60569E+01-5.11818E+01-2.95828E+01
 -1       267-2.81686E+01 7.00416E+02-4.24580E+02
 -1       268 4.11342E+01-1.80537E+02-2.44226E+01
 -1       269-5.13362E+01-4.37697E+02-8.72064E+01
 -1       270-3.46390E+01-1.87936E+02 3.07190E+02
 -1       271-2.36154E+01-2.84518E+01 5.66296E+01
 -1       272-2.51228E+01-1.04778E+02 1.03005E+02
 -1       273-2.95056E+01 2.65999E+02-2.38624E+01
 -1       274-4.00963E+01-3.38078E+02-9.42449E+01
 -1       275 1.88034E+01-2.37530E+02 9.36740E+01
 -1       276 1.18302E+01-3.14264E+01 1.89917E+01
 -1       277 3.11147E+01 4.67404E+02-4.89847E+01
 -1       278 2.06954E+01-2.14557E+02-5.47827E+01
 -1       279 3.48073E+01-4.35147E+01 1.19519E+02
 -1       280-1.24133E+01-3.52205E+01 1.14872E+01
 -3
    1PSTEP                        26           1           1          
    1PGM                1.000000E+00                                  
    1PGK                2.105682E+12                                  
    1PHID                         -1                                  
    1PSUBC                         0                                  
    1PMODE                         9                                  
  100CL  109 2.30949E+05         280                     2    9MODAL      1
 -4  STRESS      6    1
 -5  SXX         1    4    1    1
 -5  SYY         1    4    2    2
 -5  SZZ         1    4    3    3
 -5  SXY         1    4    1    2
 -5  SYZ         1    4    2    3
 -5  SZX         1    4    3    1
 -1         1 5.48290E+06 1.42866E+06-9.18840E+05 1.17646E+07-7.77067E+05-8.79482E+06
 -1         2-1.19531E+07-1.37556E+06-1.04242E+05-7.45026E+06-1.14360E+06-3.22894E+06
 -1         3 1.31161E+07 1.24516E+06 9.94112E+04-7.58498E+06 9.67106E+05-3.16602E+06
 -1         4-6.83865E+06-1.38395E+06 7.81424E+05 1.12090E+07 5.65791E+05-9.34320E+06
 -1         5 5.41388E+05-8.65122E+06 7.23599E+06-5.47937E+04 5.19736E+04-1.04588E+04
 -1         6-1.30268E+06 5.36021E+06-2.39486E+06-7.89169E+04-2.84712E+05-4.80770E+05
 -1         7 5.51802E+05-5.39321E+06 2.54574E+06 2.68033E+05 1.32821E+05-2.44832E+05
 -1         8-5.22623E+05 9.10167E+06-6.27551E+06 2.13865E+05-4.79112E+05-4.05516E+05
 -1         9-7.45724E+05 7.13761E+05-1.53235E+05-1.90561E+06 2.86650E+05-7.46139E+06
 -1        10 1.01757E+07 1.08138E+01-1.82425E+01 4.32215E+06-1.82947E+00-9.63298E+06
 -1        11-1.11087E+07-6.85516E+00-5.85019E+00-4.07544E+06-1.05595E+01-5.69259E+06
 -1        12-9.74035E+05-1.18676E+06-7.69501E+05 1.11311E+06-3.64820E+05 5.99786E+06
 -1        13-4.02673E+06 3.83757E+01-8.84803E+00 9.88352E+06-5.56923E+00-1.46611E+06
 -1        14 2.45732E+06 2.85363E+01-1.71193E+00-5.89704E+06 8.82120E+00 9.90329E+05
 -1        15-1.18264E+06-7.61950E+05-4.66689E+05-1.75264E+06-2.57571E+05-8.49008E+06
 -1        16 1.17687E+07 3.72923E+00 6.63587E+00-4.63513E+06 1.06161E+01-5.82653E+06
 -1        17-1.27271E+07-7.19763E+00 1.48720E+01 4.09800E+06 7.15999E+00-1.08278E+07
 -1        18 3.77641E+06 1.23688E+06 1.19252E+06 4.18153E+06 1.35497E+05 5.12233E+06
 -1        19-2.71564E+06-3.39123E+01 7.09283E+00-4.72401E+06-7.83474E+00 9.44149E+05
 -1        20 5.45976E+06-3.08379E+01 3.33383E+00 1.07539E+07 1.20060E+00-1.29832E+06
 -1        21 1.37544E+05 5.18876E+05 2.48944E+07-4.42154E+05 6.17384E+06-4.71823E+06
 -1        22-5.20520E+05-1.77837E+06 2.14845E+07-2.80514E+05 1.20858E+06-1.95107E+06
 -1        23-4.80538E+04 1.02670E+06 8.76368E+06 8.37044E+04 2.30990E+06-1.06115E+06
 -1        24-6.59523E+05-7.34136E+07-1.62079E+06 1.73574E+06-3.04886E+06-1.96847E+05
 -1        25 3.93952E+05-4.71587E+07 1.71940E+06 1.49593E+06 5.98424E+05-1.59195E+05
 -1        26 2.66248E+05-4.27612E+07 1.43597E+05-8.12786E+05-2.64475E+06-1.01457E+06
 -1        27-5.99162E+05-4.33009E+04-2.48133E+07 3.48967E+05-4.02149E+06-4.08229E+06
 -1        28-6.65354E+04-1.35917E+06-7.17893E+06-6.70277E+04-2.09784E+06-1.40043E+06
 -1        29-1.44533E+05 2.29548E+06-2.23863E+07 4.80467E+05-6.16112E+05-2.11184E+06
 -1        30 5.00701E+05 7.99003E+07 9.41944E+05 8.72200E+05 1.87591E+06-3.59311E+05
 -1        31-5.98783E+05 4.45920E+07 1.84516E+05-4.28895E+05 2.38414E+06-8.25263E+05
 -1        32-5.27022E+05 5.06061E+07-1.89198E+06 6.97980E+05-1.58165E+06-1.18138E+05
 -1        33 2.00875E+05-7.84957E+06 5.22936E+06 5.49215E+06 4.12582E+05-7.13560E+06
 -1        34 2.88284E+06-2.84355E+06 7.18296E+05 7.31844E+06 6.74018E+05-7.71568E+06
 -1        35 2.62324E+05-2.82744E+06 3.61677E+06 2.92145E+06-2.24571E+05-3.48040E+06
 -1        36-2.02208E+06 4.05002E+06-1.18265E+06-2.64675E+06 1.18058E+06-4.27938E+06
 -1        37-6.83219E+06 1.35105E+06-6.81701E+05-3.76522E+06 1.15117E+05-3.39140E+06
 -1        38-2.05368E+06 1.18890E+06-2.17912E+06-1.61614E+06-7.28294E+05-2.71886E+06
 -1        39-1.79949E+06-3.65741E+06 9.38287E+05-2.98803E+06-7.31489E+05-3.97587E+06
 -1        40 6.06927E+06-1.54993E+05 9.61741E+05-4.34365E+06 2.51916E+05-2.94141E+06
 -1        41-6.98915E+05-1.43386E+06 1.51656E+06-1.62772E+06 8.75204E+05-2.53443E+06
 -1        42 2.06123E+05 6.95197E+06-4.84993E+06 5.81796E+06-1.60271E+05-6.62928E+06
 -1        43-3.65463E+06 1.68043E+06-1.75022E+06 7.64476E+06 1.54248E+05-7.33974E+06
 -1        44-4.05011E+03 3.35962E+06-2.67608E+06 2.93681E+06-3.28246E+05-3.50154E+06
 -1        45-9.90541E+05 5.05606E+05 4.76232E+05-2.14722E+06-3.23417E+05 7.09968E+06
 -1        46 2.69889E+06-9.70918E+05-4.02343E+05-3.27258E+06 1.20694E+06 2.95141E+06
 -1        47-1.25646E+06 2.13756E+06-1.41379E+06 3.19374E+06 5.45878E+05 7.96186E+05
 -1        48 1.55152E+06-5.15442E+04-1.93048E+05 2.64265E+06-3.23799E+05-4.08196E+05
 -1        49-1.62664E+06-1.26673E+05-3.89761E+04-3.75757E+06-8.28239E+04 1.25097E+06
 -1        50-4.72002E+06-5.10805E+05 1.83989E+05-5.10720E+06-1.63407E+05-8.22344E+05
 -1        51-1.46781E+06-5.32989E+00-3.16690E+00-1.93789E+06-1.26638E+01-2.78675E+06
 -1        52 1.82265E+06-2.20167E+00 4.18667E+05-1.19620E+06 4.19341E+05 9.73383E+05
 -1        53 4.03713E+06-4.80143E+05 2.83110E+05-2.18804E+06-9.85222E+04 5.14611E+06
 -1        54 1.56843E+06 7.53286E+05-6.97553E+05 2.28560E+05 2.78637E+04-4.15681E+06
 -1        55 2.01958E+06 8.46983E+05-5.92404E+05 7.49119E+06-1.27287E+05-4.92905E+06
 -1        56-8.16277E+05 6.22028E+05 2.84372E+04-4.13445E+04-3.25235E+05 3.76268E+06
 -1        57-2.14608E+06 6.59196E+05-3.60800E+05 3.34205E+06 1.49155E+05 3.29328E+06
 -1        58-3.28937E+06 8.71709E+05 2.92102E+00-3.97680E+05 4.83366E+05 5.41243E+06
 -1        59-1.09201E+06 2.62199E+01-4.28078E-01-2.12971E+06 9.33748E+00 3.91921E+06
 -1        60 5.45317E+06 4.93105E+05-2.94641E+04-6.00683E+06 2.31821E+05-1.07522E+06
 -1        61-5.37780E+06-3.83108E+05 8.40714E+04-1.26824E+06-1.49518E+05 3.84821E+06
 -1        62 3.05650E+06 2.87577E+05-4.20602E+05 4.94293E+04 6.64585E+04 4.15181E+06
 -1        63 4.08242E+06-2.42737E+01 2.66388E+00 1.22921E+06-4.80932E-01 5.40283E+06
 -1        64-1.39630E+06-5.80503E+05 2.86785E+04 1.25094E+05-2.75901E+05-4.15215E+06
 -1        65-2.44629E+06-4.54874E+05 3.00196E+05 7.15236E+06 7.73380E+04-5.31944E+06
 -1        66 8.84902E+05-8.45445E+00-2.19742E+00 5.12044E+05 9.81054E+00 2.71628E+06
 -1        67-2.24668E+06 1.67371E+00-5.28441E+05-1.19740E+06-2.66646E+05-5.78742E+05
 -1        68 3.62849E+06-1.80739E+05 6.11621E+05 3.27941E+06 2.15462E+05 2.90168E+06
 -1        69 1.15845E+06 4.39706E+00 6.83098E+00-2.72712E+06 1.01847E+01-2.92619E+06
 -1        70 4.25886E+05 2.20044E+06 1.36419E+06-1.34855E+06-8.66578E+05 4.26311E+06
 -1        71-2.82927E+05 2.14496E+07 7.90202E+06-4.09121E+05 6.63558E+06 1.15055E+06
 -1        72-5.93293E+04 2.08199E+07-2.56480E+06-5.75745E+05-4.60497E+06 1.02812E+06
 -1        73 6.11558E+05-1.85545E+07-8.33275E+06-2.22088E+05-6.58105E+06 8.03868E+05
 -1        74 1.01240E+05-2.00061E+07 5.69418E+06-8.36188E+05 5.21377E+06 1.41814E+06
 -1        75 5.60149E+05 5.19279E+07-2.62657E+05 3.78366E+05-2.38759E+06 9.00469E+05
 -1        76-2.39460E+05 1.59353E+07-5.41089E+06-3.77104E+05-2.55790E+06 4.24173E+05
 -1        77-8.03582E+05 7.55235E+06-1.71035E+07-1.89538E+05-2.67761E+06-1.87292E+06
 -1        78 7.57084E+05 4.06020E+07 1.58147E+06 1.69950E+05 2.62529E+06 1.75559E+06
 -1        79-2.46849E+04 1.10538E+07 1.81246E+06-1.96374E+06-5.07731E+06 2.94839E+06
 -1        80-7.86935E+04 3.81052E+05-1.20530E+07-5.00197E+05-5.86056E+06-2.85380E+05
 -1        81 3.28332E+05-4.65695E+07-3.91131E+06-1.83821E+05-4.95457E+06-9.56840E+05
 -1        82 4.57033E+05-1.27808E+07-2.61125E+06-6.57475E+04-3.39139E+06 3.99686E+05
 -1        83 3.28695E+05-6.68434E+06-1.40218E+07 1.96831E+05-4.95746E+06-1.43715E+06
 -1        84-3.26160E+04-1.11251E+07-7.06221E+06-4.11780E+05-8.53812E+06 2.09503E+06
 -1        85-2.85029E+05-3.46267E+07-8.06629E+05 9.84988E+05-2.46561E+06 1.36354E+06
 -1        86-2.70750E+05-4.78040E+07 1.39256E+06 6.38471E+05 2.01169E+06 2.69456E+05
 -1        87 2.66964E+05-1.57568E+07 7.23855E+06-5.87910E+05 2.57987E+06 1.11923E+06
 -1        88 2.69653E+05-7.54686E+06 1.78333E+07-8.20881E+05 4.56335E+06-1.55994E+06
 -1        89-1.87607E+04-8.12425E+06 1.19145E+06-2.74715E+05 4.48767E+06 1.52821E+06
 -1        90 1.57661E+05 1.18522E+06 1.26938E+07-2.44767E+04 6.93719E+06-6.75579E+05
 -1        91 2.36806E+04 5.00174E+07 3.61410E+06-5.99086E+04 4.56869E+06-4.65220E+05
 -1        92-5.45392E+05 1.43888E+07 2.35866E+06-2.80111E+05 3.27707E+06 3.87687E+05
 -1        93 3.80326E+05 1.45202E+07 7.46708E+06-1.51762E+05 8.67107E+06 2.78264E+06
 -1        94-2.28425E+05 7.82138E+06 1.46477E+07 3.78981E+05 6.08408E+06-1.29750E+06
 -1        95 5.94656E+05-2.70242E+06 1.17541E+07-4.06819E+05 7.15747E+06-1.02513E+07
 -1        96-5.86094E+05 5.48750E+06 7.90552E+06 1.27527E+06 6.27969E+06-5.95536E+06
 -1        97-9.45930E+05 6.04688E+05 2.03629E+07-1.07015E+06 2.62122E+06-7.94651E+06
 -1        98 2.92881E+06 3.20235E+06 6.07140E+06-8.30087E+05 2.54727E+06-1.18038E+07
 -1        99-2.77437E+06-3.51330E+05 3.13352E+06-1.68628E+06 5.24443E+06-5.75138E+06
 -1       100 5.94632E+06 2.10503E+06 1.08120E+06 4.11983E+06 9.18844E+04-1.11909E+07
 -1       101 3.18365E+06-6.82622E+05 4.28658E+06-2.38536E+06 1.45775E+06-1.18390E+07
 -1       102-1.29119E+05 3.53285E+05 5.06592E+06-1.70994E+06 4.12414E+06-9.54297E+06
 -1       103 2.31014E+06-5.49994E+05 1.17843E+07-1.05117E+06 6.15031E+06-1.36160E+07
 -1       104-3.23088E+05-2.24704E+06 7.12212E+06-8.31049E+05 6.33185E+06-7.83704E+06
 -1       105-3.03533E+06 8.80545E+05 6.07720E+05-1.60563E+06 2.22107E+06-7.87647E+06
 -1       106-7.99539E+06-1.20171E+06 2.23207E+06-3.37736E+06 1.14900E+06-5.63286E+06
 -1       107 6.33004E+05 4.48443E+05 9.58747E+06 4.38942E+05 4.69134E+06-8.51794E+06
 -1       108-9.75121E+05-7.97353E+05 4.75803E+06-2.35023E+05 2.99370E+06-6.02670E+06
 -1       109-7.17341E+05-3.82500E+06 6.13699E+06-8.39152E+05 3.91600E+06-8.26578E+06
 -1       110 8.62484E+05 1.02288E+06 1.74610E+07-9.27540E+05 7.23035E+06-7.98580E+06
 -1       111 1.95977E+04 3.41831E+06 1.44681E+07-4.21469E+04 6.99402E+06-5.12282E+06
 -1       112-1.13385E+06 2.55655E+06 2.18206E+06 1.14504E+06 3.26597E+06-3.69176E+06
 -1       113-2.30514E+04-7.33027E+05 1.83959E+07-1.40069E+06 5.99373E+06-1.05578E+07
 -1       114-5.99694E+05 1.46207E+06 2.50845E+07-4.34120E+05 4.73472E+06-6.80050E+06
 -1       115 4.51398E+05-3.59982E+06 1.20106E+07 7.16538E+05 4.24785E+06-1.04692E+07
 -1       116-6.02586E+05-1.68905E+06 1.20670E+07 1.45504E+06 8.13491E+05-7.89523E+06
 -1       117-2.87309E+05-2.27931E+06 1.49701E+07-6.94488E+05 1.15828E+06-4.25547E+06
 -1       118 1.79139E+06-1.62562E+06 6.15807E+06 1.89834E+06 2.67796E+06-9.46139E+06
 -1       119-3.07900E+06 5.19424E+05 1.77717E+06-1.30198E+06 3.88191E+06-5.07084E+06
 -1       120-6.70048E+05 1.99848E+06-1.37463E+07-5.70560E+05-8.95237E+06-8.21284E+06
 -1       121-4.37656E+05-6.39186E+06-6.91667E+06 1.35256E+06-7.95149E+06-5.83207E+06
 -1       122 1.72706E+06-7.85422E+05-3.23667E+06-1.84105E+06-2.74917E+06-7.29600E+06
 -1       123 1.28359E+05 3.39364E+06-1.85807E+07-2.32824E+06-5.25408E+06-6.40933E+06
 -1       124-4.38850E+06 3.00866E+05-6.94298E+06-1.21121E+06-1.85007E+06-1.33740E+07
 -1       125 7.33277E+05 3.65831E+06-9.53181E+06 1.50171E+06-3.05228E+06-7.22331E+06
 -1       126-9.66783E+05 3.68848E+06-2.06008E+07-1.35718E+06-8.14979E+06-9.38984E+06
 -1       127 5.80000E+05 3.00289E+06-1.14375E+07 1.27307E+06-3.15508E+06-1.14431E+07
 -1       128 1.70930E+05 2.72353E+06-1.27313E+07-1.79081E+06-2.47976E+06-3.15310E+06
 -1       129-1.32890E+06 3.05285E+06-7.19578E+06 1.75864E+06-6.38573E+05-1.05701E+07
 -1       130-1.88689E+06-9.95586E+04-1.09129E+07-1.07294E+06-4.55554E+06-1.45562E+07
 -1       131-7.19943E+06-1.09250E+06-2.42130E+06 3.56585E+06-7.14298E+05-1.15131E+07
 -1       132-1.37599E+06-1.83812E+06-4.88073E+06-1.39227E+06-4.44294E+06-5.80092E+06
 -1       133-3.02865E+05 2.47921E+06-8.10359E+06-3.56197E+05-4.66559E+06-6.20747E+06
 -1       134-4.06211E+05-2.76247E+06-9.69897E+06 1.03510E+06-1.01027E+07-6.08459E+06
 -1       135-2.45675E+05-2.32909E+06-2.67016E+06 1.60468E+06-3.52330E+06-2.66707E+06
 -1       136-1.12302E+06-2.62216E+06-1.20705E+07 3.47286E+05-5.73470E+06-4.25183E+06
 -1       137-1.55530E+06-7.32701E+05-1.99001E+07-7.36916E+05-8.58249E+06-6.05403E+06
 -1       138 1.51730E+06-1.14671E+06-1.59676E+06-1.78784E+06-1.40814E+06-7.88859E+06
 -1       139-2.43900E+05-1.22363E+06-6.36347E+06-1.01372E+06-4.05341E+06-1.09939E+07
 -1       140 4.18827E+05-4.10622E+05-7.64640E+06-1.45606E+05-4.23094E+06-9.56941E+06
 -1       141 8.15519E+06 1.09692E+06-1.46657E+06-3.44639E+06-1.07185E+06-5.50797E+06
 -1       142-1.53873E+05-3.55096E+05-1.90515E+06-7.84484E+05-1.93568E+06-6.24931E+06
 -1       143 6.59851E+05 1.42351E+06-2.75142E+07 1.43306E+05-3.31765E+06-4.82682E+06
 -1       144-4.22947E+06-5.69736E+04-3.82573E+06-1.67674E+06-1.84027E+06-1.13351E+07
 -1       145-1.45094E+06-4.00830E+07-8.72874E+05 3.54512E+06-2.05919E+06 5.00677E+06
 -1       146 6.26351E+05-1.23737E+07-8.94562E+05-5.32057E+06-3.84933E+06 2.73207E+06
 -1       147-7.33546E+05-3.98402E+07-4.12019E+06-7.62957E+05-4.93172E+06 9.34872E+05
 -1       148 1.06809E+06-4.17234E+07-1.73529E+06 5.20707E+06 2.01341E+06 1.42429E+06
 -1       149-1.59589E+06-1.63175E+07 5.24645E+05 1.32762E+07 9.74188E+05 2.24104E+06
 -1       150-2.11801E+06-8.48158E+06 1.81145E+05 7.96464E+06-4.36809E+05 3.72712E+06
 -1       151 9.99421E+04-6.31572E+06-6.97074E+04 1.29918E+07 5.54634E+05-2.31713E+06
 -1       152-2.09072E+06-1.82309E+07-7.09440E+05 2.46734E+06-1.23959E+06 5.34639E+06
 -1       153-8.14591E+05-6.39218E+06 2.40753E+01-2.69555E+06-1.62243E+06 4.32272E+06
 -1       154-6.63473E+05-2.68402E+07-3.67084E+05-4.06475E+05-4.51350E+06 3.93455E+06
 -1       155-2.94413E+06-3.04427E+07-6.29443E+05 8.63083E+06-1.35917E+06 3.42058E+06
 -1       156 6.09130E+06-5.17204E+06-6.43628E+04-6.88288E+06-9.26813E+05-2.19880E+04
 -1       157 6.20323E+05-1.35005E+07 1.64264E+06 1.03670E+07 1.63592E+06-1.35461E+06
 -1       158-4.13209E+05-9.76798E+06 1.16597E+06-5.02020E+06-2.49366E+06-6.06148E+05
 -1       159 8.61075E+04-2.63911E+07 3.30748E+06-1.70054E+06-1.89990E+06 1.63632E+06
 -1       160-1.35216E+06-2.11920E+07 1.55212E+06-3.45539E+06-1.59806E+06-7.45071E+05
 -1       161-5.81146E+05-4.23844E+07-2.53938E+06 9.62125E+03-4.11588E+06 3.34422E+06
 -1       162 2.41104E+05-2.22893E+07 3.73417E+05-2.07228E+05-2.78804E+06-2.01054E+05
 -1       163-6.66815E+05-5.72241E+07-4.38308E+06 1.13876E+06-5.55579E+06 4.10714E+05
 -1       164-7.54155E+05-6.20723E+07-1.14009E+06 2.79630E+06-4.23821E+06 1.24236E+06
 -1       165 6.74835E+04-6.25583E+07-3.10504E+05 3.25587E+06-2.69380E+05 4.92972E+05
 -1       166 5.47509E+05-4.76572E+07-2.73103E+05 6.61266E+06 4.44184E+05 2.70421E+06
 -1       167 6.34241E+05-2.22485E+07 5.10222E+05 6.62233E+06 4.59488E+05-2.38639E+06
 -1       168-1.20602E+06-2.90423E+07 1.30359E+06 8.42404E+06 7.83588E+04 2.16811E+05
 -1       169 9.90496E+05-2.48040E+07 8.11066E+05 2.44425E+06 1.29376E+06 6.33769E+05
 -1       170 1.15205E+06 4.38046E+07 3.02676E+06 2.38340E+06 2.80041E+06 4.71104E+06
 -1       171-2.65452E+05 4.46285E+07 2.64104E+05 6.16512E+06 5.00654E+05 1.35270E+06
 -1       172-5.81642E+05 3.72680E+07 3.25917E+06 3.31836E+05 6.58699E+06 6.93373E+05
 -1       173 2.48902E+06 1.36272E+07 2.54031E+05 1.30314E+07-6.16408E+04 1.90302E+06
 -1       174-6.81387E+05 1.41147E+07-1.09001E+06-5.94328E+06 1.85339E+06 1.49318E+06
 -1       175 4.20410E+05 1.11031E+07-1.52890E+06 1.01212E+07-6.52039E+05-2.22802E+06
 -1       176-8.36546E+05 4.70384E+06 9.94308E+05 1.27367E+07 2.85260E+05-2.62907E+06
 -1       177 3.03379E+06 3.28178E+07 2.31348E+05 8.64901E+06-9.78475E+05 2.96322E+06
 -1       178-1.04646E+06 3.03253E+07-2.02918E+05 6.47512E+06-1.24298E+06-3.65168E+05
 -1       179 2.70119E+05 2.39311E+07-1.09048E+06 6.96683E+06 3.53560E+05-1.29246E+06
 -1       180-7.57740E+05 2.68030E+07-2.18089E+06 3.10516E+06-6.52054E+05 3.14921E+04
 -1       181-8.41345E+04 4.88002E+07 3.31152E+06 5.55748E+06 1.21676E+06 3.37917E+06
 -1       182-2.10914E+06 1.97102E+07-1.11148E+06-2.08260E+06 3.46125E+06-1.06000E+06
 -1       183 5.74490E+05 4.12788E+07 3.17193E+06 8.71658E+04 6.62346E+06 3.00031E+06
 -1       184-3.70597E+05 2.58906E+07-2.05391E+06-2.73955E+06 2.10342E+06 1.10090E+06
 -1       185-9.08581E+05 2.19011E+07-8.25700E+04-3.22815E+05 2.89432E+06 6.82663E+02
 -1       186 2.37532E+04 5.94567E+07 2.77736E+06 8.78626E+05 4.78475E+06-2.35602E+05
 -1       187 5.66351E+05 6.57996E+07 2.50447E+06 2.03225E+06 2.34312E+06 1.23008E+06
 -1       188 3.57881E+06 7.83530E+06 7.92266E+05 9.08272E+06 9.91294E+05 3.57356E+06
 -1       189 2.47592E+06 2.03543E+07 2.02054E+06 3.46641E+06 7.84543E+05 4.01118E+06
 -1       190-1.66242E+06 1.03673E+07-1.02672E+06-4.58728E+06 1.99736E+06-5.42643E+05
 -1       191 1.59247E+06 2.81940E+07 1.14890E+05-1.02959E+06 4.21317E+05 1.85153E+06
 -1       192-5.50669E+06 5.29874E+06-8.85889E+05-7.28156E+06 7.20805E+05-3.94266E+05
 -1       193 5.76547E+05 7.92674E+06-5.31266E+05-1.86488E+06 1.82116E+05 3.23018E+06
 -1       194 2.53090E+05 6.66505E+07-9.69540E+05 3.13516E+06 7.47647E+05-1.27610E+05
 -1       195 6.29634E+05 5.65836E+06-8.20934E+05-1.85716E+06-2.16016E+06 7.08106E+06
 -1       196 5.53755E+05-8.61566E+06 7.52643E+05-2.14880E+06 5.13506E+06 5.83962E+06
 -1       197 9.32064E+05 1.67382E+06 1.78054E+06 1.38275E+06 1.02499E+06-5.41081E+06
 -1       198 6.11575E+05 1.90393E+05 3.76050E+06 6.35781E+05 3.92967E+06-4.80902E+06
 -1       199 2.30614E+06-3.71482E+06 4.64030E+06-1.62005E+06 3.55884E+06-2.06840E+06
 -1       200 4.43967E+05-3.36482E+06 6.36863E+06-8.74578E+05 7.32797E+06-1.87735E+06
 -1       201-7.16156E+05-3.32688E+06-1.47046E+06-3.03392E+05 2.34010E+06 4.69636E+06
 -1       202-7.05756E+04-2.48517E+07-2.92300E+06 1.46426E+04-5.76629E+06 6.19641E+04
 -1       203-3.21624E+05-2.10535E+07-4.65659E+06-3.07012E+05-5.34468E+06-2.79145E+06
 -1       204 3.68770E+05-1.16990E+07-4.91988E+06 3.94826E+04-6.53414E+06 1.24649E+06
 -1       205-2.70634E+05-2.60827E+07-4.47227E+06-1.51171E+05-4.36339E+06 3.90071E+06
 -1       206-7.87207E+04-2.47121E+07-1.45544E+06 7.41277E+05 6.13787E+05 4.82752E+06
 -1       207 1.93996E+05-6.61947E+06-7.33356E+06-1.68462E+04-8.47437E+06-5.02474E+05
 -1       208 1.16038E+05-1.19209E+07-7.49340E+06 1.03273E+06-6.67980E+06-1.75163E+06
 -1       209 5.49263E+05 3.73264E+07 1.65915E+06 2.03705E+06-1.74539E+06 2.37760E+06
 -1       210 2.61230E+05 3.37686E+07-1.61539E+06 2.63340E+06-2.44973E+06 8.57921E+05
 -1       211 5.03985E+03 2.46870E+07 4.19481E+06 2.15505E+05 7.67800E+06 1.64941E+06
 -1       212-1.21632E+05 3.05897E+07 5.71960E+06-9.55656E+04 6.24575E+06 6.14711E+05
 -1       213-1.18415E+06 1.77645E+07 1.87374E+06-1.00963E+06 4.43789E+06 6.70315E+04
 -1       214-2.27752E+06 5.52296E+06 1.34417E+06-3.63733E+06 3.73622E+06-2.08733E+06
 -1       215-1.82403E+06-5.98030E+06 9.25141E+05 8.15542E+06 1.86138E+06 9.09549E+05
 -1       216-2.68461E+06-1.50085E+07-1.76922E+05 4.05046E+06 1.52194E+06 2.94900E+06
 -1       217 3.39655E+05 4.95492E+06-6.95223E+06-1.82423E+06-4.58545E+06-1.08160E+05
 -1       218-2.54919E+05 1.16615E+07-1.17873E+07-1.46930E+06-4.18429E+06-2.39343E+06
 -1       219 3.63247E+04 6.69457E+04-8.20420E+06-9.44765E+05-7.07274E+06-7.05859E+05
 -1       220 4.83012E+05-4.04638E+06-5.79440E+06-1.80899E+06-5.39056E+06 1.97371E+06
 -1       221 3.78506E+05-4.06412E+06 1.53666E+06-2.02771E+06 2.45504E+06 5.15268E+06
 -1       222 6.93196E+05 2.66727E+07 2.62496E+06 7.89465E+05 5.16389E+05 3.88810E+06
 -1       223 1.67835E+05 1.45196E+07 3.80580E+06-6.58483E+05 9.56078E+06 3.09807E+06
 -1       224 8.76877E+05 1.38057E+07 2.86137E+06-3.26214E+05 6.88743E+06 6.98595E+06
 -1       225-8.04479E+03 1.50746E+07 5.87224E+06-5.18020E+05 6.21114E+06-1.14859E+06
 -1       226-6.77974E+04 5.02910E+06 1.19135E+06-1.51510E+06 4.26286E+06 2.13743E+06
 -1       227 1.43009E+06 2.51440E+06 4.19858E+06-9.21900E+05 4.68690E+06 3.76706E+05
 -1       228 1.13030E+06 2.29992E+07 1.79194E+06 8.10476E+05 2.17011E+06 6.20074E+06
 -1       229-1.98117E+06-1.38500E+07-5.55362E+05-1.44923E+05-5.93167E+05 5.78287E+06
 -1       230 1.52499E+05-3.14797E+06-2.22283E+05-3.00756E+06 1.91240E+06 7.04859E+06
 -1       231 7.45943E+05 5.41695E+06-7.62914E+06-2.10265E+06-4.19599E+06-2.45617E+04
 -1       232 6.90843E+05 3.03548E+06 3.48504E+06-1.82889E+06-2.62683E+06 5.72368E+06
 -1       233-8.51036E+05 2.38056E+06-6.79089E+06-1.85324E+06-6.74723E+06-1.40694E+06
 -1       234 5.99627E+05-7.62285E+05 6.73610E+06-1.39395E+06 3.73509E+06 3.20893E+05
 -1       235-2.58785E+05-1.64636E+07-5.19742E+06-2.01193E+05-6.40111E+06 7.76501E+05
 -1       236-4.93732E+05-1.37545E+07-1.43287E+06 7.19424E+05-4.13069E+06 4.98506E+06
 -1       237 6.24602E+05 2.89528E+06-9.83557E+05-2.59753E+06-1.19761E+06 7.23884E+06
 -1       238 4.69948E+05-2.81074E+05-6.45546E+05-2.47784E+06 1.25879E+06 6.45185E+06
 -1       239 2.06820E+05-3.15881E+07 1.98864E+06 1.56614E+06 4.24807E+06 1.25254E+06
 -1       240-1.83505E+05-3.79528E+07-3.23249E+05 4.32847E+05 2.25061E+05 2.73995E+06
 -1       241 1.85059E+05-1.36753E+07 2.82841E+06-1.16301E+06 6.31812E+06 2.75176E+06
 -1       242 9.77749E+05-2.52335E+07 5.98576E+05 1.22730E+06 5.23610E+06 2.73374E+06
 -1       243-7.40788E+03-9.73233E+06 1.35447E+07-8.57806E+05 3.94797E+06-2.56888E+06
 -1       244 3.44849E+05-3.93704E+06 1.36705E+07-1.04475E+06 7.56315E+06-5.74544E+05
 -1       245-6.20992E+05-6.48844E+06 1.02944E+07-1.07174E+06 4.62968E+06-1.90251E+06
 -1       246 2.29486E+05-1.73142E+07 7.54421E+06 1.54636E+06 1.89131E+06-2.61312E+06
 -1       247 1.90164E+04-1.03404E+07 4.35270E+06 9.07001E+05 3.01054E+06-1.19364E+06
 -1       248-1.17647E+06 5.74947E+06-2.67537E+06 5.26642E+06-8.10031E+05-5.13114E+06
 -1       249-2.59894E+06 3.41155E+06-4.27212E+06-1.09099E+06-3.20160E+06-2.53834E+06
 -1       250 2.31054E+06 1.08605E+07-6.00962E+05 4.96875E+06-1.80531E+06 4.16080E+06
 -1       251 1.77146E+05 6.87644E+06-3.25658E+06 1.45928E+06-2.08825E+06 2.27582E+05
 -1       252-1.37215E+06 7.54122E+05-3.04763E+06 9.44633E+05-1.15155E+06-6.60536E+06
 -1       253-8.82985E+05 1.17521E+06-1.29776E+06-1.55696E+06-2.44680E+06-5.93860E+05
 -1       254 1.26674E+06 2.51932E+06-2.83535E+05 3.55670E+05-2.10952E+06 3.53391E+06
 -1       255 1.72631E+06 6.08142E+06-3.81618E+05 7.40418E+06-3.90692E+05 4.66223E+05
 -1       256 2.91543E+06 4.71854E+06 3.54006E+05 1.17596E+06 5.76503E+05 5.89195E+06
 -1       257-1.24248E+05-5.41446E+05-2.95886E+06-1.58842E+06-4.60657E+06 1.38742E+05
 -1       258 1.95946E+05 2.37129E+06 7.25032E+06-8.54236E+05 9.23722E+06-5.15346E+05
 -1       259 2.45603E+06 4.89457E+06-1.46347E+05-2.32741E+06 2.21314E+06 5.37440E+06
 -1       260 7.10610E+05-4.84044E+05-1.28898E+06-3.25573E+06-1.72126E+06-2.67103E+06
 -1       261-3.00950E+05-4.77106E+06-4.96644E+05-4.77999E+06-1.98397E+06 1.91725E+06
 -1       262 1.53498E+05-2.93267E+07-6.50800E+06-1.47963E+05-6.11181E+06 6.02561E+05
 -1       263-9.37209E+05 1.89250E+07 5.20958E+06 1.32662E+06 5.60824E+06-2.52441E+06
 -1       264 8.25974E+05 5.22609E+06-7.79751E+05-4.60716E+06 2.33548E+06 1.97699E+06
 -1       265 3.90123E+05-4.98824E+06 1.85052E+06 6.12532E+06 2.17962E+06-3.92883E+06
 -1       266-4.82676E+05-1.88683E+05 1.36403E+06-2.53167E+06 3.28087E+06-1.28599E+06
 -1       267-6.08404E+05 2.12042E+07-8.01347E+06 1.38181E+06-2.93929E+06-2.64920E+06
 -1       268 1.57543E+06-5.45111E+06-2.35269E+06-3.83002E+06-3.10647E+06-2.16800E+06
 -1       269-8.71076E+05 1.36141E+07 6.74713E+06 3.15700E+05 6.94782E+06-2.40933E+06
 -1       270-1.30646E+05-2.24123E+07-4.87490E+06-5.48088E+05-6.96148E+06 2.74867E+06
 -1       271-2.53584E+06-3.83135E+06-7.18914E+05-3.19785E+06-2.06700E+06 4.14465E+06
 -1       272-3.92776E+04-5.01918E+06-1.96965E+06-2.39392E+06-4.87635E+06 4.62982E+06
 -1       273-3.11411E+05-1.80739E+07 1.80895E+06 3.37991E+06 1.41431E+06-1.55885E+06
 -1       274-8.26268E+05 1.27677E+07 7.14142E+06-1.94946E+05 6.32285E+06-4.57746E+06
 -1       275-3.72025E+05 8.74163E+06 6.85647E+06-1.62392E+05 8.94329E+06-6.16023E+05
 -1       276 5.04245E+05 5.33547E+05 1.49740E+06-1.92900E+06 3.14257E+06 2.00009E+06
 -1       277-3.74829E+05 2.72166E+07-4.98128E+06 1.22129E+06-2.73174E+06-6.02823E+05
 -1       278 6.11673E+05-4.69382E+06-6.44327E+06-2.90702E+06-5.37575E+06-2.33846E+06
 -1       279 2.53116E+06 1.54634E+07 9.75838E+05-8.16913E+05 3.05197E+06 3.37487E+06
 -1       280-1.20058E+06-9.18790E+05-1.62986E+06-1.95766E+06-1.78257E+06 5.18251E+05
 -3
    1PSTEP                        27           1           1          
    1PGM                1.000000E+00                                  
    1PGK                2.105682E+12                                  
    1PHID                         -1                                  
    1PSUBC                         0                                  
    1PMODE                         9                                  
  100CL  109 2.30949E+05         280                     2    9MODAL      1
 -4  TOSTRAIN    6    1
 -5  EXX         1    4    1    1
 -5  EYY         1    4    2    2
 -5  EZZ         1    4    3    3
 -5  EXY         1    4    1    2
 -5  EYZ         1    4    2    3
 -5  EZX         1    4    3    1
 -1         1 2.74145E+01 7.14328E+00-4.59420E+00 5.88230E+01-3.88533E+00-4.39741E+01
 -1         2-5.97656E+01-6.87782E+00-5.21208E-01-3.72513E+01-5.71799E+00-1.61447E+01
 -1         3 6.55806E+01 6.22579E+00 4.97056E-01-3.79249E+01 4.83553E+00-1.58301E+01
 -1         4-3.41933E+01-6.91977E+00 3.90712E+00 5.60451E+01 2.82896E+00-4.67160E+01
 -1         5 2.70694E+00-4.32561E+01 3.61800E+01-2.73969E-01 2.59868E-01-5.22938E-02
 -1         6-6.51342E+00 2.68010E+01-1.19743E+01-3.94585E-01-1.42356E+00-2.40385E+00
 -1         7 2.75901E+00-2.69660E+01 1.27287E+01 1.34016E+00 6.64105E-01-1.22416E+00
 -1         8-2.61311E+00 4.55084E+01-3.13775E+01 1.06933E+00-2.39556E+00-2.02758E+00
 -1         9-3.72862E+00 3.56880E+00-7.66175E-01-9.52805E+00 1.43325E+00-3.73069E+01
 -1        10 5.08785E+01 5.40692E-05-9.12124E-05 2.16108E+01-9.14737E-06-4.81649E+01
 -1        11-5.55437E+01-3.42758E-05-2.92510E-05-2.03772E+01-5.27976E-05-2.84629E+01
 -1        12-4.87017E+00-5.93382E+00-3.84750E+00 5.56555E+00-1.82410E+00 2.99893E+01
 -1        13-2.01336E+01 1.91878E-04-4.42402E-05 4.94176E+01-2.78462E-05-7.33056E+00
 -1        14 1.22866E+01 1.42682E-04-8.55967E-06-2.94852E+01 4.41060E-05 4.95164E+00
 -1        15-5.91322E+00-3.80975E+00-2.33344E+00-8.76322E+00-1.28786E+00-4.24504E+01
 -1        16 5.88437E+01 1.86462E-05 3.31793E-05-2.31756E+01 5.30807E-05-2.91326E+01
 -1        17-6.36354E+01-3.59882E-05 7.43602E-05 2.04900E+01 3.58000E-05-5.41391E+01
 -1        18 1.88820E+01 6.18438E+00 5.96262E+00 2.09077E+01 6.77486E-01 2.56117E+01
 -1        19-1.35782E+01-1.69561E-04 3.54642E-05-2.36200E+01-3.91737E-05 4.72074E+00
 -1        20 2.72988E+01-1.54190E-04 1.66692E-05 5.37693E+01 6.00302E-06-6.49159E+00
 -1        21 6.87721E-01 2.59438E+00 1.24472E+02-2.21077E+00 3.08692E+01-2.35912E+01
 -1        22-2.60260E+00-8.89183E+00 1.07423E+02-1.40257E+00 6.04288E+00-9.75536E+00
 -1        23-2.40269E-01 5.13351E+00 4.38184E+01 4.18522E-01 1.15495E+01-5.30577E+00
 -1        24-3.29761E+00-3.67068E+02-8.10395E+00 8.67870E+00-1.52443E+01-9.84236E-01
 -1        25 1.96976E+00-2.35793E+02 8.59700E+00 7.47966E+00 2.99212E+00-7.95973E-01
 -1        26 1.33124E+00-2.13806E+02 7.17984E-01-4.06393E+00-1.32237E+01-5.07283E+00
 -1        27-2.99581E+00-2.16505E-01-1.24067E+02 1.74483E+00-2.01074E+01-2.04114E+01
 -1        28-3.32677E-01-6.79586E+00-3.58947E+01-3.35138E-01-1.04892E+01-7.00214E+00
 -1        29-7.22665E-01 1.14774E+01-1.11931E+02 2.40233E+00-3.08056E+00-1.05592E+01
 -1        30 2.50350E+00 3.99501E+02 4.70972E+00 4.36100E+00 9.37953E+00-1.79655E+00
 -1        31-2.99392E+00 2.22960E+02 9.22580E-01-2.14448E+00 1.19207E+01-4.12631E+00
 -1        32-2.63511E+00 2.53031E+02-9.45991E+00 3.48990E+00-7.90823E+00-5.90691E-01
 -1        33 1.00438E+00-3.92478E+01 2.61468E+01 2.74608E+01 2.06291E+00-3.56780E+01
 -1        34 1.44142E+01-1.42177E+01 3.59148E+00 3.65922E+01 3.37009E+00-3.85784E+01
 -1        35 1.31162E+00-1.41372E+01 1.80839E+01 1.46072E+01-1.12285E+00-1.74020E+01
 -1        36-1.01104E+01 2.02501E+01-5.91326E+00-1.32337E+01 5.90289E+00-2.13969E+01
 -1        37-3.41609E+01 6.75524E+00-3.40850E+00-1.88261E+01 5.75587E-01-1.69570E+01
 -1        38-1.02684E+01 5.94451E+00-1.08956E+01-8.08071E+00-3.64147E+00-1.35943E+01
 -1        39-8.99743E+00-1.82871E+01 4.69143E+00-1.49401E+01-3.65744E+00-1.98794E+01
 -1        40 3.03463E+01-7.74964E-01 4.80870E+00-2.17182E+01 1.25958E+00-1.47071E+01
 -1        41-3.49458E+00-7.16932E+00 7.58282E+00-8.13858E+00 4.37602E+00-1.26721E+01
 -1        42 1.03062E+00 3.47599E+01-2.42497E+01 2.90898E+01-8.01355E-01-3.31464E+01
 -1        43-1.82731E+01 8.40216E+00-8.75108E+00 3.82238E+01 7.71239E-01-3.66987E+01
 -1        44-2.02506E-02 1.67981E+01-1.33804E+01 1.46841E+01-1.64123E+00-1.75077E+01
 -1        45-4.95271E+00 2.52803E+00 2.38116E+00-1.07361E+01-1.61709E+00 3.54984E+01
 -1        46 1.34944E+01-4.85459E+00-2.01171E+00-1.63629E+01 6.03472E+00 1.47570E+01
 -1        47-6.28229E+00 1.06878E+01-7.06895E+00 1.59687E+01 2.72939E+00 3.98093E+00
 -1        48 7.75759E+00-2.57721E-01-9.65239E-01 1.32133E+01-1.61900E+00-2.04098E+00
 -1        49-8.13322E+00-6.33366E-01-1.94881E-01-1.87878E+01-4.14120E-01 6.25486E+00
 -1        50-2.36001E+01-2.55403E+00 9.19946E-01-2.55360E+01-8.17035E-01-4.11172E+00
 -1        51-7.33904E+00-2.66494E-05-1.58345E-05-9.68946E+00-6.33190E-05-1.39338E+01
 -1        52 9.11327E+00-1.10084E-05 2.09333E+00-5.98100E+00 2.09670E+00 4.86692E+00
 -1        53 2.01856E+01-2.40072E+00 1.41555E+00-1.09402E+01-4.92611E-01 2.57305E+01
 -1        54 7.84214E+00 3.76643E+00-3.48776E+00 1.14280E+00 1.39318E-01-2.07841E+01
 -1        55 1.00979E+01 4.23491E+00-2.96202E+00 3.74560E+01-6.36434E-01-2.46453E+01
 -1        56-4.08139E+00 3.11014E+00 1.42186E-01-2.06722E-01-1.62617E+00 1.88134E+01
 -1        57-1.07304E+01 3.29598E+00-1.80400E+00 1.67102E+01 7.45774E-01 1.64664E+01
 -1        58-1.64469E+01 4.35855E+00 1.46051E-05-1.98840E+00 2.41683E+00 2.70621E+01
 -1        59-5.46005E+00 1.31099E-04-2.14039E-06-1.06485E+01 4.66874E-05 1.95960E+01
 -1        60 2.72658E+01 2.46552E+00-1.47321E-01-3.00341E+01 1.15910E+00-5.37612E+00
 -1        61-2.68890E+01-1.91554E+00 4.20357E-01-6.34121E+00-7.47588E-01 1.92411E+01
 -1        62 1.52825E+01 1.43789E+00-2.10301E+00 2.47147E-01 3.32292E-01 2.07591E+01
 -1        63 2.04121E+01-1.21369E-04 1.33194E-05 6.14603E+00-2.40466E-06 2.70141E+01
 -1        64-6.98149E+00-2.90252E+00 1.43393E-01 6.25469E-01-1.37950E+00-2.07607E+01
 -1        65-1.22314E+01-2.27437E+00 1.50098E+00 3.57618E+01 3.86690E-01-2.65972E+01
 -1        66 4.42451E+00-4.22723E-05-1.09871E-05 2.56022E+00 4.90527E-05 1.35814E+01
 -1        67-1.12334E+01 8.36857E-06-2.64221E+00-5.98699E+00-1.33323E+00-2.89371E+00
 -1        68 1.81424E+01-9.03695E-01 3.05811E+00 1.63970E+01 1.07731E+00 1.45084E+01
 -1        69 5.79224E+00 2.19853E-05 3.41549E-05-1.36356E+01 5.09233E-05-1.46310E+01
 -1        70 2.12943E+00 1.10022E+01 6.82094E+00-6.74274E+00-4.33289E+00 2.13155E+01
 -1        71-1.41463E+00 1.07248E+02 3.95101E+01-2.04560E+00 3.31779E+01 5.75276E+00
 -1        72-2.96646E-01 1.04099E+02-1.28240E+01-2.87872E+00-2.30249E+01 5.14060E+00
 -1        73 3.05779E+00-9.27723E+01-4.16637E+01-1.11044E+00-3.29053E+01 4.01934E+00
 -1        74 5.06198E-01-1.00030E+02 2.84709E+01-4.18094E+00 2.60688E+01 7.09068E+00
 -1        75 2.80075E+00 2.59640E+02-1.31328E+00 1.89183E+00-1.19379E+01 4.50234E+00
 -1        76-1.19730E+00 7.96763E+01-2.70544E+01-1.88552E+00-1.27895E+01 2.12086E+00
 -1        77-4.01791E+00 3.77618E+01-8.55176E+01-9.47688E-01-1.33881E+01-9.36462E+00
 -1        78 3.78542E+00 2.03010E+02 7.90735E+00 8.49752E-01 1.31265E+01 8.77796E+00
 -1        79-1.23425E-01 5.52687E+01 9.06232E+00-9.81872E+00-2.53865E+01 1.47420E+01
 -1        80-3.93467E-01 1.90526E+00-6.02652E+01-2.50098E+00-2.93028E+01-1.42690E+00
 -1        81 1.64166E+00-2.32848E+02-1.95565E+01-9.19107E-01-2.47728E+01-4.78420E+00
 -1        82 2.28516E+00-6.39039E+01-1.30562E+01-3.28737E-01-1.69569E+01 1.99843E+00
 -1        83 1.64348E+00-3.34217E+01-7.01091E+01 9.84154E-01-2.47873E+01-7.18577E+00
 -1        84-1.63080E-01-5.56255E+01-3.53110E+01-2.05890E+00-4.26906E+01 1.04752E+01
 -1        85-1.42514E+00-1.73134E+02-4.03315E+00 4.92494E+00-1.23281E+01 6.81768E+00
 -1        86-1.35375E+00-2.39020E+02 6.96278E+00 3.19236E+00 1.00584E+01 1.34728E+00
 -1        87 1.33482E+00-7.87840E+01 3.61927E+01-2.93955E+00 1.28994E+01 5.59617E+00
 -1        88 1.34826E+00-3.77343E+01 8.91663E+01-4.10440E+00 2.28167E+01-7.79968E+00
 -1        89-9.38036E-02-4.06213E+01 5.95725E+00-1.37358E+00 2.24383E+01 7.64106E+00
 -1        90 7.88304E-01 5.92611E+00 6.34690E+01-1.22383E-01 3.46860E+01-3.37790E+00
 -1        91 1.18403E-01 2.50087E+02 1.80705E+01-2.99543E-01 2.28435E+01-2.32610E+00
 -1        92-2.72696E+00 7.19442E+01 1.17933E+01-1.40056E+00 1.63853E+01 1.93843E+00
 -1        93 1.90163E+00 7.26009E+01 3.73354E+01-7.58810E-01 4.33554E+01 1.39132E+01
 -1        94-1.14212E+00 3.91069E+01 7.32387E+01 1.89490E+00 3.04204E+01-6.48748E+00
 -1        95 2.97328E+00-1.35121E+01 5.87703E+01-2.03410E+00 3.57874E+01-5.12567E+01
 -1        96-2.93047E+00 2.74375E+01 3.95276E+01 6.37633E+00 3.13984E+01-2.97768E+01
 -1        97-4.72965E+00 3.02344E+00 1.01814E+02-5.35073E+00 1.31061E+01-3.97326E+01
 -1        98 1.46441E+01 1.60117E+01 3.03570E+01-4.15044E+00 1.27364E+01-5.90191E+01
 -1        99-1.38719E+01-1.75665E+00 1.56676E+01-8.43139E+00 2.62222E+01-2.87569E+01
 -1       100 2.97316E+01 1.05251E+01 5.40598E+00 2.05992E+01 4.59422E-01-5.59544E+01
 -1       101 1.59183E+01-3.41311E+00 2.14329E+01-1.19268E+01 7.28875E+00-5.91951E+01
 -1       102-6.45594E-01 1.76642E+00 2.53296E+01-8.54970E+00 2.06207E+01-4.77148E+01
 -1       103 1.15507E+01-2.74997E+00 5.89214E+01-5.25586E+00 3.07516E+01-6.80801E+01
 -1       104-1.61544E+00-1.12352E+01 3.56106E+01-4.15524E+00 3.16593E+01-3.91852E+01
 -1       105-1.51766E+01 4.40272E+00 3.03860E+00-8.02814E+00 1.11053E+01-3.93824E+01
 -1       106-3.99770E+01-6.00853E+00 1.11603E+01-1.68868E+01 5.74500E+00-2.81643E+01
 -1       107 3.16502E+00 2.24221E+00 4.79374E+01 2.19471E+00 2.34567E+01-4.25897E+01
 -1       108-4.87561E+00-3.98676E+00 2.37901E+01-1.17511E+00 1.49685E+01-3.01335E+01
 -1       109-3.58671E+00-1.91250E+01 3.06850E+01-4.19576E+00 1.95800E+01-4.13289E+01
 -1       110 4.31242E+00 5.11438E+00 8.73051E+01-4.63770E+00 3.61517E+01-3.99290E+01
 -1       111 9.79885E-02 1.70915E+01 7.23406E+01-2.10734E-01 3.49701E+01-2.56141E+01
 -1       112-5.66927E+00 1.27827E+01 1.09103E+01 5.72519E+00 1.63299E+01-1.84588E+01
 -1       113-1.15257E-01-3.66513E+00 9.19794E+01-7.00345E+00 2.99687E+01-5.27891E+01
 -1       114-2.99847E+00 7.31033E+00 1.25423E+02-2.17060E+00 2.36736E+01-3.40025E+01
 -1       115 2.25699E+00-1.79991E+01 6.00529E+01 3.58269E+00 2.12392E+01-5.23462E+01
 -1       116-3.01293E+00-8.44523E+00 6.03349E+01 7.27518E+00 4.06745E+00-3.94762E+01
 -1       117-1.43655E+00-1.13966E+01 7.48504E+01-3.47244E+00 5.79141E+00-2.12773E+01
 -1       118 8.95694E+00-8.12810E+00 3.07904E+01 9.49168E+00 1.33898E+01-4.73069E+01
 -1       119-1.53950E+01 2.59712E+00 8.88583E+00-6.50990E+00 1.94096E+01-2.53542E+01
 -1       120-3.35024E+00 9.99242E+00-6.87313E+01-2.85280E+00-4.47619E+01-4.10642E+01
 -1       121-2.18828E+00-3.19593E+01-3.45833E+01 6.76281E+00-3.97574E+01-2.91604E+01
 -1       122 8.63528E+00-3.92711E+00-1.61834E+01-9.20527E+00-1.37459E+01-3.64800E+01
 -1       123 6.41797E-01 1.69682E+01-9.29037E+01-1.16412E+01-2.62704E+01-3.20466E+01
 -1       124-2.19425E+01 1.50433E+00-3.47149E+01-6.05603E+00-9.25037E+00-6.68698E+01
 -1       125 3.66639E+00 1.82915E+01-4.76591E+01 7.50857E+00-1.52614E+01-3.61166E+01
 -1       126-4.83391E+00 1.84424E+01-1.03004E+02-6.78592E+00-4.07489E+01-4.69492E+01
 -1       127 2.90000E+00 1.50145E+01-5.71877E+01 6.36535E+00-1.57754E+01-5.72153E+01
 -1       128 8.54652E-01 1.36176E+01-6.36566E+01-8.95406E+00-1.23988E+01-1.57655E+01
 -1       129-6.64448E+00 1.52642E+01-3.59789E+01 8.79318E+00-3.19286E+00-5.28504E+01
 -1       130-9.43447E+00-4.97793E-01-5.45647E+01-5.36469E+00-2.27777E+01-7.27812E+01
 -1       131-3.59971E+01-5.46251E+00-1.21065E+01 1.78293E+01-3.57149E+00-5.75654E+01
 -1       132-6.87996E+00-9.19061E+00-2.44037E+01-6.96134E+00-2.22147E+01-2.90046E+01
 -1       133-1.51432E+00 1.23961E+01-4.05179E+01-1.78099E+00-2.33280E+01-3.10373E+01
 -1       134-2.03106E+00-1.38123E+01-4.84949E+01 5.17550E+00-5.05136E+01-3.04230E+01
 -1       135-1.22838E+00-1.16455E+01-1.33508E+01 8.02338E+00-1.76165E+01-1.33354E+01
 -1       136-5.61508E+00-1.31108E+01-6.03526E+01 1.73643E+00-2.86735E+01-2.12591E+01
 -1       137-7.77650E+00-3.66351E+00-9.95005E+01-3.68458E+00-4.29124E+01-3.02701E+01
 -1       138 7.58650E+00-5.73353E+00-7.98382E+00-8.93922E+00-7.04072E+00-3.94429E+01
 -1       139-1.21950E+00-6.11817E+00-3.18173E+01-5.06860E+00-2.02671E+01-5.49696E+01
 -1       140 2.09413E+00-2.05311E+00-3.82320E+01-7.28030E-01-2.11547E+01-4.78470E+01
 -1       141 4.07760E+01 5.48462E+00-7.33287E+00-1.72319E+01-5.35924E+00-2.75398E+01
 -1       142-7.69363E-01-1.77548E+00-9.52575E+00-3.92242E+00-9.67841E+00-3.12465E+01
 -1       143 3.29926E+00 7.11757E+00-1.37571E+02 7.16531E-01-1.65883E+01-2.41341E+01
 -1       144-2.11474E+01-2.84868E-01-1.91286E+01-8.38370E+00-9.20137E+00-5.66755E+01
 -1       145-7.25470E+00-2.00415E+02-4.36437E+00 1.77256E+01-1.02960E+01 2.50338E+01
 -1       146 3.13175E+00-6.18686E+01-4.47281E+00-2.66029E+01-1.92466E+01 1.36604E+01
 -1       147-3.66773E+00-1.99201E+02-2.06010E+01-3.81478E+00-2.46586E+01 4.67436E+00
 -1       148 5.34047E+00-2.08617E+02-8.67647E+00 2.60354E+01 1.00670E+01 7.12147E+00
 -1       149-7.97945E+00-8.15877E+01 2.62323E+00 6.63811E+01 4.87094E+00 1.12052E+01
 -1       150-1.05900E+01-4.24079E+01 9.05726E-01 3.98232E+01-2.18405E+00 1.86356E+01
 -1       151 4.99710E-01-3.15786E+01-3.48537E-01 6.49589E+01 2.77317E+00-1.15857E+01
 -1       152-1.04536E+01-9.11547E+01-3.54720E+00 1.23367E+01-6.19793E+00 2.67319E+01
 -1       153-4.07296E+00-3.19609E+01 1.20377E-04-1.34777E+01-8.11217E+00 2.16136E+01
 -1       154-3.31737E+00-1.34201E+02-1.83542E+00-2.03237E+00-2.25675E+01 1.96728E+01
 -1       155-1.47206E+01-1.52213E+02-3.14722E+00 4.31541E+01-6.79587E+00 1.71029E+01
 -1       156 3.04565E+01-2.58602E+01-3.21814E-01-3.44144E+01-4.63406E+00-1.09940E-01
 -1       157 3.10162E+00-6.75026E+01 8.21322E+00 5.18350E+01 8.17959E+00-6.77304E+00
 -1       158-2.06605E+00-4.88399E+01 5.82983E+00-2.51010E+01-1.24683E+01-3.03074E+00
 -1       159 4.30538E-01-1.31955E+02 1.65374E+01-8.50269E+00-9.49952E+00 8.18159E+00
 -1       160-6.76082E+00-1.05960E+02 7.76061E+00-1.72769E+01-7.99032E+00-3.72535E+00
 -1       161-2.90573E+00-2.11922E+02-1.26969E+01 4.81062E-02-2.05794E+01 1.67211E+01
 -1       162 1.20552E+00-1.11447E+02 1.86709E+00-1.03614E+00-1.39402E+01-1.00527E+00
 -1       163-3.33407E+00-2.86121E+02-2.19154E+01 5.69379E+00-2.77789E+01 2.05357E+00
 -1       164-3.77078E+00-3.10362E+02-5.70044E+00 1.39815E+01-2.11911E+01 6.21182E+00
 -1       165 3.37417E-01-3.12792E+02-1.55252E+00 1.62793E+01-1.34690E+00 2.46486E+00
 -1       166 2.73754E+00-2.38286E+02-1.36552E+00 3.30633E+01 2.22092E+00 1.35211E+01
 -1       167 3.17121E+00-1.11243E+02 2.55111E+00 3.31117E+01 2.29744E+00-1.19320E+01
 -1       168-6.03008E+00-1.45212E+02 6.51795E+00 4.21202E+01 3.91794E-01 1.08405E+00
 -1       169 4.95248E+00-1.24020E+02 4.05533E+00 1.22212E+01 6.46882E+00 3.16884E+00
 -1       170 5.76023E+00 2.19023E+02 1.51338E+01 1.19170E+01 1.40020E+01 2.35552E+01
 -1       171-1.32726E+00 2.23143E+02 1.32052E+00 3.08256E+01 2.50327E+00 6.76350E+00
 -1       172-2.90821E+00 1.86340E+02 1.62958E+01 1.65918E+00 3.29349E+01 3.46686E+00
 -1       173 1.24451E+01 6.81358E+01 1.27015E+00 6.51568E+01-3.08204E-01 9.51509E+00
 -1       174-3.40694E+00 7.05737E+01-5.45004E+00-2.97164E+01 9.26696E+00 7.46590E+00
 -1       175 2.10205E+00 5.55154E+01-7.64451E+00 5.06062E+01-3.26019E+00-1.11401E+01
 -1       176-4.18273E+00 2.35192E+01 4.97154E+00 6.36833E+01 1.42630E+00-1.31454E+01
 -1       177 1.51689E+01 1.64089E+02 1.15674E+00 4.32451E+01-4.89238E+00 1.48161E+01
 -1       178-5.23228E+00 1.51626E+02-1.01459E+00 3.23756E+01-6.21490E+00-1.82584E+00
 -1       179 1.35060E+00 1.19656E+02-5.45242E+00 3.48342E+01 1.76780E+00-6.46229E+00
 -1       180-3.78870E+00 1.34015E+02-1.09044E+01 1.55258E+01-3.26027E+00 1.57460E-01
 -1       181-4.20672E-01 2.44001E+02 1.65576E+01 2.77874E+01 6.08380E+00 1.68959E+01
 -1       182-1.05457E+01 9.85509E+01-5.55738E+00-1.04130E+01 1.73063E+01-5.30001E+00
 -1       183 2.87245E+00 2.06394E+02 1.58596E+01 4.35829E-01 3.31173E+01 1.50015E+01
 -1       184-1.85299E+00 1.29453E+02-1.02696E+01-1.36978E+01 1.05171E+01 5.50449E+00
 -1       185-4.54290E+00 1.09506E+02-4.12850E-01-1.61408E+00 1.44716E+01 3.41331E-03
 -1       186 1.18766E-01 2.97284E+02 1.38868E+01 4.39313E+00 2.39237E+01-1.17801E+00
 -1       187 2.83176E+00 3.28998E+02 1.25224E+01 1.01613E+01 1.17156E+01 6.15039E+00
 -1       188 1.78940E+01 3.91765E+01 3.96133E+00 4.54136E+01 4.95647E+00 1.78678E+01
 -1       189 1.23796E+01 1.01771E+02 1.01027E+01 1.73320E+01 3.92272E+00 2.00559E+01
 -1       190-8.31208E+00 5.18365E+01-5.13361E+00-2.29364E+01 9.98678E+00-2.71321E+00
 -1       191 7.96233E+00 1.40970E+02 5.74450E-01-5.14793E+00 2.10659E+00 9.25766E+00
 -1       192-2.75334E+01 2.64937E+01-4.42945E+00-3.64078E+01 3.60403E+00-1.97133E+00
 -1       193 2.88273E+00 3.96337E+01-2.65633E+00-9.32441E+00 9.10578E-01 1.61509E+01
 -1       194 1.26545E+00 3.33252E+02-4.84770E+00 1.56758E+01 3.73823E+00-6.38051E-01
 -1       195 3.14817E+00 2.82918E+01-4.10467E+00-9.28580E+00-1.08008E+01 3.54053E+01
 -1       196 2.76878E+00-4.30783E+01 3.76322E+00-1.07440E+01 2.56753E+01 2.91981E+01
 -1       197 4.66032E+00 8.36907E+00 8.90268E+00 6.91376E+00 5.12493E+00-2.70541E+01
 -1       198 3.05788E+00 9.51965E-01 1.88025E+01 3.17890E+00 1.96483E+01-2.40451E+01
 -1       199 1.15307E+01-1.85741E+01 2.32015E+01-8.10023E+00 1.77942E+01-1.03420E+01
 -1       200 2.21984E+00-1.68241E+01 3.18432E+01-4.37289E+00 3.66399E+01-9.38673E+00
 -1       201-3.58078E+00-1.66344E+01-7.35229E+00-1.51696E+00 1.17005E+01 2.34818E+01
 -1       202-3.52878E-01-1.24259E+02-1.46150E+01 7.32132E-02-2.88314E+01 3.09821E-01
 -1       203-1.60812E+00-1.05267E+02-2.32830E+01-1.53506E+00-2.67234E+01-1.39572E+01
 -1       204 1.84385E+00-5.84949E+01-2.45994E+01 1.97413E-01-3.26707E+01 6.23247E+00
 -1       205-1.35317E+00-1.30414E+02-2.23614E+01-7.55855E-01-2.18169E+01 1.95035E+01
 -1       206-3.93604E-01-1.23560E+02-7.27720E+00 3.70638E+00 3.06894E+00 2.41376E+01
 -1       207 9.69978E-01-3.30973E+01-3.66678E+01-8.42310E-02-4.23719E+01-2.51237E+00
 -1       208 5.80190E-01-5.96045E+01-3.74670E+01 5.16365E+00-3.33990E+01-8.75813E+00
 -1       209 2.74632E+00 1.86632E+02 8.29577E+00 1.01852E+01-8.72693E+00 1.18880E+01
 -1       210 1.30615E+00 1.68843E+02-8.07694E+00 1.31670E+01-1.22486E+01 4.28960E+00
 -1       211 2.51992E-02 1.23435E+02 2.09740E+01 1.07753E+00 3.83900E+01 8.24703E+00
 -1       212-6.08160E-01 1.52948E+02 2.85980E+01-4.77828E-01 3.12287E+01 3.07355E+00
 -1       213-5.92075E+00 8.88226E+01 9.36872E+00-5.04814E+00 2.21894E+01 3.35157E-01
 -1       214-1.13876E+01 2.76148E+01 6.72083E+00-1.81866E+01 1.86811E+01-1.04366E+01
 -1       215-9.12013E+00-2.99015E+01 4.62571E+00 4.07771E+01 9.30688E+00 4.54774E+00
 -1       216-1.34231E+01-7.50423E+01-8.84608E-01 2.02523E+01 7.60972E+00 1.47450E+01
 -1       217 1.69827E+00 2.47746E+01-3.47611E+01-9.12116E+00-2.29273E+01-5.40799E-01
 -1       218-1.27460E+00 5.83074E+01-5.89364E+01-7.34649E+00-2.09214E+01-1.19672E+01
 -1       219 1.81624E-01 3.34729E-01-4.10210E+01-4.72383E+00-3.53637E+01-3.52930E+00
 -1       220 2.41506E+00-2.02319E+01-2.89720E+01-9.04496E+00-2.69528E+01 9.86853E+00
 -1       221 1.89253E+00-2.03206E+01 7.68328E+00-1.01386E+01 1.22752E+01 2.57634E+01
 -1       222 3.46598E+00 1.33364E+02 1.31248E+01 3.94732E+00 2.58194E+00 1.94405E+01
 -1       223 8.39177E-01 7.25979E+01 1.90290E+01-3.29241E+00 4.78039E+01 1.54904E+01
 -1       224 4.38439E+00 6.90285E+01 1.43068E+01-1.63107E+00 3.44371E+01 3.49297E+01
 -1       225-4.02239E-02 7.53728E+01 2.93612E+01-2.59010E+00 3.10557E+01-5.74297E+00
 -1       226-3.38987E-01 2.51455E+01 5.95674E+00-7.57548E+00 2.13143E+01 1.06872E+01
 -1       227 7.15044E+00 1.25720E+01 2.09929E+01-4.60950E+00 2.34345E+01 1.88353E+00
 -1       228 5.65148E+00 1.14996E+02 8.95971E+00 4.05238E+00 1.08505E+01 3.10037E+01
 -1       229-9.90587E+00-6.92500E+01-2.77681E+00-7.24614E-01-2.96584E+00 2.89144E+01
 -1       230 7.62493E-01-1.57398E+01-1.11141E+00-1.50378E+01 9.56202E+00 3.52430E+01
 -1       231 3.72971E+00 2.70847E+01-3.81457E+01-1.05132E+01-2.09799E+01-1.22808E-01
 -1       232 3.45421E+00 1.51774E+01 1.74252E+01-9.14443E+00-1.31341E+01 2.86184E+01
 -1       233-4.25518E+00 1.19028E+01-3.39545E+01-9.26620E+00-3.37362E+01-7.03472E+00
 -1       234 2.99814E+00-3.81142E+00 3.36805E+01-6.96977E+00 1.86755E+01 1.60446E+00
 -1       235-1.29392E+00-8.23178E+01-2.59871E+01-1.00597E+00-3.20055E+01 3.88250E+00
 -1       236-2.46866E+00-6.87725E+01-7.16437E+00 3.59712E+00-2.06534E+01 2.49253E+01
 -1       237 3.12301E+00 1.44764E+01-4.91778E+00-1.29877E+01-5.98806E+00 3.61942E+01
 -1       238 2.34974E+00-1.40537E+00-3.22773E+00-1.23892E+01 6.29396E+00 3.22593E+01
 -1       239 1.03410E+00-1.57941E+02 9.94322E+00 7.83071E+00 2.12403E+01 6.26268E+00
 -1       240-9.17527E-01-1.89764E+02-1.61624E+00 2.16424E+00 1.12530E+00 1.36997E+01
 -1       241 9.25293E-01-6.83763E+01 1.41421E+01-5.81505E+00 3.15906E+01 1.37588E+01
 -1       242 4.88874E+00-1.26167E+02 2.99288E+00 6.13652E+00 2.61805E+01 1.36687E+01
 -1       243-3.70394E-02-4.86617E+01 6.77237E+01-4.28903E+00 1.97399E+01-1.28444E+01
 -1       244 1.72425E+00-1.96852E+01 6.83525E+01-5.22374E+00 3.78157E+01-2.87272E+00
 -1       245-3.10496E+00-3.24422E+01 5.14718E+01-5.35872E+00 2.31484E+01-9.51254E+00
 -1       246 1.14743E+00-8.65710E+01 3.77211E+01 7.73179E+00 9.45657E+00-1.30656E+01
 -1       247 9.50818E-02-5.17022E+01 2.17635E+01 4.53500E+00 1.50527E+01-5.96818E+00
 -1       248-5.88235E+00 2.87474E+01-1.33769E+01 2.63321E+01-4.05016E+00-2.56557E+01
 -1       249-1.29947E+01 1.70577E+01-2.13606E+01-5.45494E+00-1.60080E+01-1.26917E+01
 -1       250 1.15527E+01 5.43026E+01-3.00481E+00 2.48438E+01-9.02657E+00 2.08040E+01
 -1       251 8.85730E-01 3.43822E+01-1.62829E+01 7.29642E+00-1.04413E+01 1.13791E+00
 -1       252-6.86077E+00 3.77061E+00-1.52382E+01 4.72316E+00-5.75774E+00-3.30268E+01
 -1       253-4.41493E+00 5.87603E+00-6.48878E+00-7.78479E+00-1.22340E+01-2.96930E+00
 -1       254 6.33370E+00 1.25966E+01-1.41768E+00 1.77835E+00-1.05476E+01 1.76695E+01
 -1       255 8.63155E+00 3.04071E+01-1.90809E+00 3.70209E+01-1.95346E+00 2.33111E+00
 -1       256 1.45771E+01 2.35927E+01 1.77003E+00 5.87978E+00 2.88252E+00 2.94598E+01
 -1       257-6.21238E-01-2.70723E+00-1.47943E+01-7.94212E+00-2.30329E+01 6.93708E-01
 -1       258 9.79728E-01 1.18564E+01 3.62516E+01-4.27118E+00 4.61861E+01-2.57673E+00
 -1       259 1.22802E+01 2.44729E+01-7.31734E-01-1.16371E+01 1.10657E+01 2.68720E+01
 -1       260 3.55305E+00-2.42022E+00-6.44492E+00-1.62787E+01-8.60627E+00-1.33551E+01
 -1       261-1.50475E+00-2.38553E+01-2.48322E+00-2.38999E+01-9.91985E+00 9.58625E+00
 -1       262 7.67488E-01-1.46633E+02-3.25400E+01-7.39815E-01-3.05590E+01 3.01280E+00
 -1       263-4.68604E+00 9.46248E+01 2.60479E+01 6.63308E+00 2.80412E+01-1.26221E+01
 -1       264 4.12987E+00 2.61305E+01-3.89876E+00-2.30358E+01 1.16774E+01 9.88496E+00
 -1       265 1.95062E+00-2.49412E+01 9.25258E+00 3.06266E+01 1.08981E+01-1.96441E+01
 -1       266-2.41338E+00-9.43415E-01 6.82016E+00-1.26584E+01 1.64044E+01-6.42996E+00
 -1       267-3.04202E+00 1.06021E+02-4.00673E+01 6.90904E+00-1.46964E+01-1.32460E+01
 -1       268 7.87716E+00-2.72556E+01-1.17634E+01-1.91501E+01-1.55323E+01-1.08400E+01
 -1       269-4.35538E+00 6.80705E+01 3.37357E+01 1.57850E+00 3.47391E+01-1.20467E+01
 -1       270-6.53229E-01-1.12061E+02-2.43745E+01-2.74044E+00-3.48074E+01 1.37433E+01
 -1       271-1.26792E+01-1.91568E+01-3.59457E+00-1.59892E+01-1.03350E+01 2.07232E+01
 -1       272-1.96388E-01-2.50959E+01-9.84824E+00-1.19696E+01-2.43817E+01 2.31491E+01
 -1       273-1.55705E+00-9.03696E+01 9.04476E+00 1.68996E+01 7.07156E+00-7.79427E+00
 -1       274-4.13134E+00 6.38383E+01 3.57071E+01-9.74729E-01 3.16143E+01-2.28873E+01
 -1       275-1.86012E+00 4.37082E+01 3.42823E+01-8.11959E-01 4.47164E+01-3.08011E+00
 -1       276 2.52123E+00 2.66773E+00 7.48700E+00-9.64500E+00 1.57129E+01 1.00004E+01
 -1       277-1.87415E+00 1.36083E+02-2.49064E+01 6.10644E+00-1.36587E+01-3.01412E+00
 -1       278 3.05836E+00-2.34691E+01-3.22164E+01-1.45351E+01-2.68788E+01-1.16923E+01
 -1       279 1.26558E+01 7.73168E+01 4.87919E+00-4.08456E+00 1.52599E+01 1.68744E+01
 -1       280-6.00288E+00-4.59395E+00-8.14929E+00-9.78830E+00-8.91284E+00 2.59125E+00
 -3
    1PSTEP                        28           1           1          
    1PGM                1.000000E+00                                  
    1PGK                2.158962E+12                                  
    1PHID                         -1                                  
    1PSUBC                         0                                  
    1PMODE                        10                                  
  100CL  110 2.33853E+05         280                     2   10MODAL      1
 -4  DISP        4    1
 -5  D1          1    2    1    0
 -5  D2          1    2    2    0
 -5  D3          1    2    3    0
 -5  ALL         1    2    0    0    1ALL
 -1         1 0.00000E+00 0.00000E+00 0.00000E+00
 -1         2 0.00000E+00 0.00000E+00 0.00000E+00
 -1         3 0.00000E+00 0.00000E+00 0.00000E+00
 -1         4 0.00000E+00 0.00000E+00 0.00000E+00
 -1         5 9.01838E+02 2.36163E+02 1.15463E+03
 -1         6 8.63463E+02 1.80944E+02-1.18418E+03
 -1         7 8.80015E+02-2.73839E+02 1.10561E+03
 -1         8 8.63473E+02-2.14394E+02-1.09442E+03
 -1         9 0.00000E+00 0.00000E+00 0.00000E+00
 -1        10 0.00000E+00 0.00000E+00 0.00000E+00
 -1        11 0.00000E+00 0.00000E+00 0.00000E+00
 -1        12 0.00000E+00 0.00000E+00 0.00000E+00
 -1        13 0.00000E+00 0.00000E+00 0.00000E+00
 -1        14 0.00000E+00 0.00000E+00 0.00000E+00
 -1        15 0.00000E+00 0.00000E+00 0.00000E+00
 -1        16 0.00000E+00 0.00000E+00 0.00000E+00
 -1        17 0.00000E+00 0.00000E+00 0.00000E+00
 -1        18 0.00000E+00 0.00000E+00 0.00000E+00
 -1        19 0.00000E+00 0.00000E+00 0.00000E+00
 -1        20 0.00000E+00 0.00000E+00 0.00000E+00
 -1        21-3.17402E+02 2.38951E+02-1.66196E+00
 -1        22 8.48147E+01 2.35791E+02 8.12752E+02
 -1        23 5.88574E+01 2.01394E+02-8.35651E+02
 -1        24 6.23882E+02-6.13108E+00 1.16054E+03
 -1        25 6.92090E+02 1.69454E+02 1.12952E+03
 -1        26 6.73303E+02-1.95297E+02 1.11961E+03
 -1        27-3.19340E+02-2.07089E+02-6.04048E+00
 -1        28 6.09009E+01-2.19924E+02 7.74043E+02
 -1        29 6.91233E+01-1.97144E+02-7.77743E+02
 -1        30 5.67121E+02-2.41607E+01-1.07698E+03
 -1        31 6.56183E+02 1.24924E+02-1.11519E+03
 -1        32 6.59725E+02-1.62441E+02-1.05873E+03
 -1        33 4.01385E+02-3.87813E+00 4.84581E+00
 -1        34 1.07469E+02-1.47002E+01-8.62530E+01
 -1        35 6.83747E+02 8.03063E+01 4.14330E+02
 -1        36 3.67730E+02-2.17219E+01-1.77749E+01
 -1        37 1.00291E+02-2.00695E+01 8.21405E+01
 -1        38 6.61318E+02 4.98925E+01-4.45873E+02
 -1        39 3.55507E+02-3.24209E+01-2.89639E+01
 -1        40 9.72316E+01-4.67858E+00-1.03757E+02
 -1        41 6.66440E+02-1.25365E+02 3.54675E+02
 -1        42 3.80754E+02 7.83246E+00 8.82300E+00
 -1        43 9.66409E+01 2.01816E+01 9.64598E+01
 -1        44 6.58830E+02-7.86598E+01-3.81648E+02
 -1        45 0.00000E+00 0.00000E+00 0.00000E+00
 -1        46 0.00000E+00 0.00000E+00 0.00000E+00
 -1        47 0.00000E+00 0.00000E+00 0.00000E+00
 -1        48 0.00000E+00 0.00000E+00 0.00000E+00
 -1        49 0.00000E+00 0.00000E+00 0.00000E+00
 -1        50 0.00000E+00 0.00000E+00 0.00000E+00
 -1        51 0.00000E+00 0.00000E+00 0.00000E+00
 -1        52 0.00000E+00 0.00000E+00 0.00000E+00
 -1        53 0.00000E+00 0.00000E+00 0.00000E+00
 -1        54 0.00000E+00 0.00000E+00 0.00000E+00
 -1        55 0.00000E+00 0.00000E+00 0.00000E+00
 -1        56 0.00000E+00 0.00000E+00 0.00000E+00
 -1        57 0.00000E+00 0.00000E+00 0.00000E+00
 -1        58 0.00000E+00 0.00000E+00 0.00000E+00
 -1        59 0.00000E+00 0.00000E+00 0.00000E+00
 -1        60 0.00000E+00 0.00000E+00 0.00000E+00
 -1        61 0.00000E+00 0.00000E+00 0.00000E+00
 -1        62 0.00000E+00 0.00000E+00 0.00000E+00
 -1        63 0.00000E+00 0.00000E+00 0.00000E+00
 -1        64 0.00000E+00 0.00000E+00 0.00000E+00
 -1        65 0.00000E+00 0.00000E+00 0.00000E+00
 -1        66 0.00000E+00 0.00000E+00 0.00000E+00
 -1        67 0.00000E+00 0.00000E+00 0.00000E+00
 -1        68 0.00000E+00 0.00000E+00 0.00000E+00
 -1        69 0.00000E+00 0.00000E+00 0.00000E+00
 -1        70-5.97498E+02 3.73261E+00-3.04539E+01
 -1        71-7.02465E+01 1.46358E+02-8.11306E+02
 -1        72-6.49514E+01-1.40616E+02-7.85892E+02
 -1        73-8.05180E+01-1.62692E+02 7.97280E+02
 -1        74-9.41014E+01 1.76984E+02 8.26938E+02
 -1        75 2.37112E+02-8.59741E+01-9.79593E+02
 -1        76 3.61573E+02-1.92265E+02-1.00244E+03
 -1        77-2.60321E+02-1.81080E+02-4.35526E+02
 -1        78-1.07182E+02-2.57383E+00-7.57610E+02
 -1        79-3.86194E+02-7.17303E+01-4.51213E+02
 -1        80-4.54076E+02-1.44424E+02-6.20358E+00
 -1        81 2.19341E+02-1.01427E+02 1.03436E+03
 -1        82 3.55857E+02-2.29148E+02 1.02240E+03
 -1        83-2.67440E+02-1.92427E+02 4.33701E+02
 -1        84-3.96808E+02-8.44652E+01 4.34541E+02
 -1        85-1.57665E+02-4.32791E+00 7.74206E+02
 -1        86 2.19402E+02 9.25168E+01 1.04792E+03
 -1        87 3.71708E+02 2.21960E+02 1.05316E+03
 -1        88-2.78801E+02 2.20169E+02 4.47162E+02
 -1        89-4.13605E+02 9.61368E+01 4.42278E+02
 -1        90-4.55730E+02 1.62445E+02-8.35873E+00
 -1        91 2.27862E+02 6.96306E+01-1.00118E+03
 -1        92 3.54078E+02 1.77987E+02-1.06381E+03
 -1        93-3.88190E+02 8.83618E+01-4.53664E+02
 -1        94-2.65193E+02 2.00913E+02-4.58409E+02
 -1        95-1.75234E+02 9.36363E+00 1.48179E+00
 -1        96 5.43357E+01 7.38324E+01-3.25575E+02
 -1        97 6.48140E+01 8.40520E+01 2.90377E+02
 -1        98 1.41606E+01-1.81569E+01-6.19682E+01
 -1        99 1.24865E+01-1.62379E+01 5.85793E+01
 -1       100 3.49159E+01-1.14171E+01-5.21176E+01
 -1       101-1.80441E+01-9.45864E+00-2.22473E+01
 -1       102-6.02725E+01-1.10736E+01-1.02109E+00
 -1       103-6.38855E+01-1.08760E+01-3.29270E+01
 -1       104-6.44464E+01-9.48977E+00 3.23060E+01
 -1       105-1.33103E+01-8.74102E+00 2.08921E+01
 -1       106 3.27324E+01-1.00605E+01 5.16122E+01
 -1       107-1.36859E+02 3.75721E+01-8.18090E+01
 -1       108 2.79590E+02 1.88245E+01-1.79442E+02
 -1       109 4.73730E+01-9.95608E-01-2.44716E+01
 -1       110-2.49505E+02 8.83362E+01-1.90091E+01
 -1       111-2.02414E+02 1.50897E+02-3.00210E+02
 -1       112 4.08898E+02 1.20387E+02-7.16747E+02
 -1       113-1.35636E+02 3.62812E+01 6.24036E+01
 -1       114-1.82663E+02 1.54618E+02 2.67938E+02
 -1       115 3.13128E+01 1.14700E+00 6.73287E+00
 -1       116 2.93594E+02 3.10780E+01 1.61660E+02
 -1       117 4.34009E+02 1.51703E+02 6.80944E+02
 -1       118 1.44871E+02-1.55798E+01-6.92713E+01
 -1       119 1.29659E+02-2.12458E+01 5.73431E+01
 -1       120-1.67370E+02 1.70291E+01-1.38303E+01
 -1       121 6.32961E+01-9.52004E+01 2.63056E+02
 -1       122 1.45946E+01 1.43137E+01-7.48828E+01
 -1       123 6.78604E+01-7.03688E+01-2.76414E+02
 -1       124 8.86571E+00 2.48358E+01 6.93064E+01
 -1       125 2.88751E+02-2.03630E+01-1.36529E+02
 -1       126-1.33271E+02-1.91239E+01-5.88434E+01
 -1       127 3.34962E+01 1.34768E+01 8.06515E+00
 -1       128 4.17254E+02-1.34643E+02-6.42911E+02
 -1       129 1.35720E+02 2.28445E+01 7.89702E+01
 -1       130-6.75882E+01 2.66912E+01 3.10531E+01
 -1       131 3.16965E+01 1.29235E+01 5.75507E+01
 -1       132 2.90777E+02-5.63560E+01 1.07277E+02
 -1       133 6.04371E+01-6.59457E+00-2.76862E+01
 -1       134-1.34082E+02-3.19570E+01 3.90221E+01
 -1       135 4.13649E+02-1.69435E+02 6.35890E+02
 -1       136-1.95812E+02-1.43046E+02 2.67234E+02
 -1       137-2.53154E+02-7.49627E+01-5.43800E+00
 -1       138-1.26084E+01 1.12902E+01-2.95049E+01
 -1       139-5.25486E+01 2.17514E+01-4.61530E+00
 -1       140-5.61394E+01 1.77496E+01-5.06682E+01
 -1       141 3.55779E+01 4.28255E+00-6.15308E+01
 -1       142 1.28635E+02 1.27417E+00-8.71396E+01
 -1       143-1.89931E+02-1.30747E+02-2.75177E+02
 -1       144-2.25291E+01 1.44380E+01 2.92301E+01
 -1       145 2.55043E+02-1.23240E+01 2.57932E+00
 -1       146 1.08334E+02-7.69704E+00-9.89949E+01
 -1       147 5.80179E+02-8.79214E+01 3.82143E+02
 -1       148 5.60612E+02 5.06077E+01 4.00370E+02
 -1       149 8.43686E+01-1.14764E+01-7.75113E+01
 -1       150 2.04879E+01-6.53023E+00-4.94342E+01
 -1       151 2.78293E+01-7.79135E+00-5.06748E+01
 -1       152 9.56076E+01-9.75556E+00-7.00032E+01
 -1       153 3.22683E+01-4.71589E+00-5.63722E+01
 -1       154 1.78858E+02-1.14858E+01-6.90658E+01
 -1       155 1.65804E+02-1.29656E+01-5.96453E+01
 -1       156 2.71881E+01-3.33855E+00-6.02731E+01
 -1       157 2.07004E+02-1.46174E+01-6.76725E+01
 -1       158 2.04174E+02-1.15945E+01-8.56918E+01
 -1       159 2.94866E+02-2.71902E+01-1.59176E-01
 -1       160 4.67616E+02-6.62495E+01 1.37559E+02
 -1       161 4.01595E+02-3.36712E+01 1.52661E+02
 -1       162 7.26449E+02-1.73437E+02 7.06282E+02
 -1       163 5.93624E+02-7.55803E+01 7.43542E+02
 -1       164 4.78427E+02-1.48153E+01 4.02443E+02
 -1       165 5.93589E+02 4.88507E+01 7.34131E+02
 -1       166 3.85688E+02 8.41602E-01 1.60640E+02
 -1       167 4.92718E+02 2.61289E+01 1.67875E+02
 -1       168 3.09743E+02-9.14985E+00 7.76446E+00
 -1       169 7.33525E+02 1.34173E+02 7.37849E+02
 -1       170 3.18873E+02-2.91539E+00 3.61835E+01
 -1       171 5.37581E+02-5.85012E+01-3.99731E+02
 -1       172 5.86906E+02 3.04941E+01-4.50132E+02
 -1       173 7.67925E+01 1.69740E+01 1.00841E+02
 -1       174 8.48287E+01-1.44743E+01 8.97688E+01
 -1       175 2.06370E+02 2.12833E+01 8.69228E+01
 -1       176 2.11152E+01 1.12584E+01 5.75681E+01
 -1       177 1.73591E+02 6.78169E+00 9.35199E+01
 -1       178 3.18004E+02 1.88056E+00 7.97227E+00
 -1       179 4.70181E+02-2.59292E+01-1.61119E+02
 -1       180 7.05693E+02-1.28785E+02-6.97850E+02
 -1       181 4.08749E+02-1.16600E+01-1.62160E+02
 -1       182 4.90105E+02 5.91339E+00-1.88412E+02
 -1       183 4.36936E+02-2.38078E+00-1.72672E+02
 -1       184 3.29141E+02-1.60152E+01 4.73967E+00
 -1       185 7.17644E+02 9.57507E+01-7.64522E+02
 -1       186 5.64870E+02 3.09943E+01-7.45403E+02
 -1       187 4.69803E+02-1.20838E+01-4.24284E+02
 -1       188 1.53277E+01 7.31049E+00 6.30581E+01
 -1       189 1.06215E+02-5.92211E+00 9.60354E+01
 -1       190 2.02544E+02-2.41291E+01 6.88155E+01
 -1       191 1.87224E+02-1.18152E+01 8.37012E+01
 -1       192 2.60022E+01-1.02851E+01 5.35586E+01
 -1       193 1.58491E+01-7.03706E+00 5.99022E+01
 -1       194 5.55720E+02-6.66799E+01-7.17068E+02
 -1       195-1.48262E+02 1.01982E+01 3.25629E+01
 -1       196-2.88629E+02 1.61771E+01 6.92880E+01
 -1       197 4.16664E+00-1.13728E+01-4.07013E+01
 -1       198-4.82802E+01-1.24776E+01-3.30598E+01
 -1       199-7.36962E+01-6.10341E+00-2.55575E+01
 -1       200-2.40378E+02 1.67767E+01 1.93199E+01
 -1       201-5.87699E+01-9.83474E+00-4.28160E+01
 -1       202 1.86194E+02-4.13073E+01 1.38969E+02
 -1       203 2.98870E+02-9.60263E+01 3.45142E+02
 -1       204-1.85304E+02-2.95469E+01 1.59340E+02
 -1       205 1.69895E+01-2.14126E+01 2.23489E+02
 -1       206 1.19334E+00 1.84200E-01 5.78485E+01
 -1       207-3.23747E+02-9.24705E+01 2.68549E+02
 -1       208-1.20155E+01-1.41056E+02 5.04712E+02
 -1       209 1.82363E+02-2.91706E+01-3.82597E+02
 -1       210 2.75141E+02-9.89101E+01-6.45906E+02
 -1       211-1.10519E+02 5.12431E+01-4.91849E+02
 -1       212 2.65875E+02 8.39790E+01-6.95442E+02
 -1       213 1.04397E+02-1.34284E+01 7.07882E+01
 -1       214 6.75573E+01-1.64276E+01 8.05787E+01
 -1       215 2.78715E+01-9.17735E+00-5.14309E+01
 -1       216 5.71150E+01-1.13021E+01-6.99494E+01
 -1       217-3.18244E+02-8.22701E+01-2.65064E+02
 -1       218-2.65514E+00-1.20427E+02-4.99331E+02
 -1       219-3.65281E+02-4.33971E+01 7.56203E+00
 -1       220-2.45225E+02-3.76449E+00 2.82832E+01
 -1       221-4.74482E+02 2.85595E+01 1.00848E+02
 -1       222-1.24830E+02 6.11335E+00-2.71732E+02
 -1       223-1.78774E+02 3.55473E+01-1.57214E+02
 -1       224-1.68061E+02 1.00677E+01-5.22889E+01
 -1       225-3.53023E+01-5.08595E-01-8.29623E+00
 -1       226-5.90377E+01-5.72838E+00 4.76471E+01
 -1       227-1.80007E+02 2.60052E+00 5.49587E+00
 -1       228 1.32368E+01 5.62472E+00 5.59658E+01
 -1       229-1.52497E+01-4.67062E+00-6.07743E+01
 -1       230-1.27514E+02-1.43697E+00-2.31711E+01
 -1       231-1.11562E+02-1.24042E+00-3.42507E+01
 -1       232-3.46491E+02 2.53683E+00-3.08850E+01
 -1       233-1.73552E+02 1.93853E+01 7.66918E+00
 -1       234-8.17372E+01-8.53248E+00-3.40972E+00
 -1       235-2.79311E+01-7.55568E+00-3.24756E+00
 -1       236-9.43511E+01 1.96814E+00-1.47804E+01
 -1       237-6.44762E+01 5.59172E+00 1.56379E+01
 -1       238-2.51816E+02 5.65981E+00 9.24386E+00
 -1       239 2.69172E+02 1.07435E+02 6.78906E+02
 -1       240 1.37285E+01 1.93385E+01 4.73669E+02
 -1       241-2.42594E+02 6.66439E+01 3.16519E+02
 -1       242 5.46386E+01 3.16438E+01 2.33452E+02
 -1       243-5.36383E+00 1.43257E+02 5.26400E+02
 -1       244-3.48075E+02 1.01562E+02 1.04629E+02
 -1       245-1.45094E+02 5.00313E+01 1.57403E+02
 -1       246 3.05734E+02 7.45739E+01 3.76947E+02
 -1       247 8.62086E+01 1.05030E+01 6.45461E+01
 -1       248 6.31594E+01 2.16641E+01 9.00897E+01
 -1       249-4.33653E+01 2.24629E+01 5.41087E+01
 -1       250 2.87299E+01 1.35255E+01 8.47906E+01
 -1       251 6.11306E+01 1.67098E+01 4.50402E+01
 -1       252 7.70629E+00 1.24122E+01 4.49900E+01
 -1       253-4.15755E+01 1.63507E+01 1.45477E+01
 -1       254-2.97216E+01 1.29521E+01 4.99413E+01
 -1       255 2.63832E+01 1.02472E+01 5.69255E+01
 -1       256 1.24501E+01 5.01082E+00 7.33520E+01
 -1       257-7.59880E+01 1.69323E+01-2.50337E+01
 -1       258-2.79987E+02 5.01462E+01-6.48738E+01
 -1       259-2.94502E+01-2.44717E+00 4.74346E+01
 -1       260 7.19099E+00 6.80635E+00-4.54409E+01
 -1       261 3.03519E+01 2.88541E+00-5.53899E+01
 -1       262 2.53150E+02-1.21717E+02 6.74394E+02
 -1       263 2.93384E+02 5.54745E+01-4.05782E+02
 -1       264 2.59506E+01-8.02542E+00 5.88004E+01
 -1       265 7.05635E+01-1.67696E+01-7.64712E+01
 -1       266 6.69620E+00-8.58534E+00 4.24828E+01
 -1       267 2.99777E+02-6.49103E+01-3.60329E+02
 -1       268 6.32866E+01 5.70286E+00-9.02005E+01
 -1       269-1.07997E+01 1.26302E+02-5.39891E+02
 -1       270-1.27194E+02-5.96116E+01 5.10040E+02
 -1       271-7.79216E+00 1.66606E+00-4.80192E+01
 -1       272-4.98534E+01 7.67252E+00-4.49667E+01
 -1       273 9.82765E+01-1.37690E+01-5.62147E+01
 -1       274 6.82150E-01 2.68728E+01-1.30779E+02
 -1       275-3.14327E+02 1.03818E+02-2.89254E+02
 -1       276-2.30433E+01-7.51366E+00 2.46953E+01
 -1       277 1.95199E+02-1.45807E+01-1.49954E+02
 -1       278 7.24380E+00 8.87468E+00-6.12949E+01
 -1       279 5.62054E+01-6.45168E+00 8.73487E+01
 -1       280-1.89415E+01 8.79081E+00-2.32968E+01
 -3
    1PSTEP                        29           1           1          
    1PGM                1.000000E+00                                  
    1PGK                2.158962E+12                                  
    1PHID                         -1                                  
    1PSUBC                         0                                  
    1PMODE                        10                                  
  100CL  110 2.33853E+05         280                     2   10MODAL      1
 -4  STRESS      6    1
 -5  SXX         1    4    1    1
 -5  SYY         1    4    2    2
 -5  SZZ         1    4    3    3
 -5  SXY         1    4    1    2
 -5  SYZ         1    4    2    3
 -5  SZX         1    4    3    1
 -1         1 4.85838E+06 2.33672E+05 3.55380E+05-1.34834E+06 5.64369E+05-4.21924E+06
 -1         2 4.46299E+06 2.56165E+04 2.71929E+05-1.52451E+06-6.70098E+05 4.30311E+06
 -1         3 4.17820E+06 3.34945E+05 1.44390E+05 8.25324E+05-6.53059E+05-4.88378E+06
 -1         4 3.82570E+06 1.55736E+05 2.37573E+05 1.69185E+06 8.49993E+05 4.53854E+06
 -1         5 7.36398E+06-1.11275E+06-7.06602E+06 5.27745E+05 2.47797E+05-7.42181E+04
 -1         6 5.86231E+06-8.88029E+05-6.70645E+06-3.97278E+05 5.06444E+05 2.95405E+05
 -1         7 6.35393E+06-1.56013E+06-6.55243E+06 6.58689E+04 1.40087E+05-2.75144E+05
 -1         8 6.26917E+06-6.40374E+05-5.55825E+06 2.04453E+05-8.50578E+05 8.26111E+04
 -1         9-4.22099E+06-9.53518E+04 6.93442E+05-5.61375E+05 1.67929E+05 2.34780E+05
 -1        10 1.56663E+06 8.19045E-01-1.30844E+01-9.43773E+05 1.11244E+00-3.47043E+06
 -1        11 2.10860E+06-7.14377E-01-1.34567E+01-8.54599E+05-2.44030E+00 3.45713E+06
 -1        12 3.06854E+06 4.63704E+04-2.80943E+05-3.59121E+05-3.31531E+04-4.87323E+06
 -1        13 9.81223E+05-5.52425E-01 1.20583E+00-6.86662E+05 6.11634E-01-4.90823E+06
 -1        14 8.46266E+05-6.03331E-01-2.56932E+00-3.36472E+05-2.17364E+00-5.37178E+06
 -1        15-3.55972E+06-5.27241E+04 1.54231E+06 9.48437E+05 6.98480E+04-2.06278E+05
 -1        16 2.50754E+06-8.58604E-01-1.40287E+01 6.73268E+05-1.50112E+00-4.28750E+06
 -1        17 7.57524E+05-1.11135E+00-1.24056E+01 1.19547E+06 1.03238E+00 4.17016E+06
 -1        18 4.59180E+06 4.20765E+05-4.50294E+05-1.69355E+05-1.69950E+05 5.05874E+06
 -1        19-9.01205E+04-1.42278E+00 1.81351E+00-8.06794E+05-1.11094E+00 5.48607E+06
 -1        20-3.12573E+05-1.72933E+00-2.96780E+00 8.06541E+05 1.62413E+00 5.61640E+06
 -1        21-1.12680E+06-2.18792E+06-7.50726E+07 6.61876E+04-4.07692E+05 4.47939E+05
 -1        22 1.91768E+06-1.49303E+05-4.62512E+07-5.52023E+04-1.07578E+06-6.00777E+05
 -1        23 2.56898E+06-1.03264E+05-4.73005E+07 5.07035E+04 8.36356E+04 1.38187E+06
 -1        24 6.79727E+06-1.65054E+07-1.13359E+07-1.52619E+05 3.48451E+05-2.50189E+05
 -1        25 4.27385E+06-9.69170E+06-3.31262E+06-1.97736E+04 4.00111E+04 9.22141E+04
 -1        26 3.08700E+06-1.07082E+07-4.48556E+06 3.04004E+05 1.86385E+05-5.13944E+05
 -1        27-5.20186E+05-1.33647E+06-7.36991E+07 2.02718E+05 2.37687E+04 6.42866E+04
 -1        28 2.38082E+06 1.17972E+04-4.44658E+07-2.30450E+05 6.53246E+05-1.79984E+06
 -1        29 1.88211E+06 8.36608E+04-4.35348E+07-7.04178E+04-7.73266E+05 1.81803E+06
 -1        30 5.31726E+06-1.35227E+07-7.26507E+06 2.87738E+04 1.73914E+05 3.50820E+05
 -1        31 3.96290E+06-8.20412E+06-3.38287E+06-1.71707E+06 1.31851E+06 9.16520E+04
 -1        32 3.96024E+06-7.60927E+06-1.99845E+06 1.45781E+06-1.48065E+06-2.48058E+04
 -1        33 2.48403E+07 1.14854E+05 1.46798E+06-1.39624E+06 1.05064E+05-4.88949E+06
 -1        34 1.60553E+07-1.60129E+05-8.58130E+05-1.29083E+06 2.56098E+05-2.71171E+06
 -1        35 2.00180E+07-5.40742E+05-1.08498E+06-2.88450E+05 2.97448E+05-2.15291E+06
 -1        36 2.52847E+07 4.09905E+05 1.31228E+06-7.92911E+05 4.58244E+05 3.25471E+06
 -1        37 1.47091E+07-2.68342E+05-3.15034E+05-9.21773E+05-2.01571E+05 2.53051E+06
 -1        38 1.98292E+07-5.24957E+05-2.07361E+06-3.32206E+05 4.71828E+05 1.29544E+06
 -1        39 2.50692E+07-4.49877E+04 7.33391E+05 8.31954E+05-2.36666E+04-3.90715E+06
 -1        40 1.42202E+07-2.71876E+05-3.69890E+04 6.46589E+04-2.67744E+05-2.91468E+06
 -1        41 2.09802E+07-9.92620E+05-1.95168E+06 8.79271E+05-4.15457E+05-1.51180E+06
 -1        42 2.40401E+07 1.53002E+03 2.72770E+05 5.56708E+05-1.88791E+05 3.97397E+06
 -1        43 1.52300E+07-3.06395E+05-5.12356E+05 3.75888E+05 2.70798E+05 2.48411E+06
 -1        44 1.93086E+07-7.73812E+05-1.89028E+06 5.79700E+05-3.53796E+05 1.76003E+06
 -1        45-7.64391E+06 5.87988E+05 2.72024E+06 3.66279E+04 3.13127E+05-5.06902E+05
 -1        46-3.06607E+05 1.38957E+05 9.08522E+05-9.38831E+05 7.18909E+04 5.13085E+06
 -1        47 3.51405E+05 2.79283E+05 1.65432E+06-1.05925E+06-4.19016E+05-4.67663E+06
 -1        48 1.80888E+06-5.18971E+04 2.93248E+05 1.05773E+06-4.93640E+04 4.69755E+06
 -1        49 1.08971E+06-8.43620E+04 2.09106E+05 6.50306E+05 6.23779E+04-4.58156E+06
 -1        50 3.41787E+06-1.45740E+04 7.11730E+04-1.17930E+06 2.83017E+04 4.97587E+06
 -1        51-2.05716E+06-6.26005E-01-1.53530E+01-7.36586E+05-1.53633E+00 2.72678E+06
 -1        52-5.17272E+06-1.10049E+00 1.00709E+06-8.64621E+05 1.06885E+05-1.13996E+05
 -1        53-2.81284E+06 2.13661E+05-2.14253E+05-2.03220E+05-2.79037E+02 2.89571E+06
 -1        54-2.23429E+06-1.26057E+05 7.76168E+05-7.86550E+05 3.25070E+05-1.50121E+06
 -1        55 3.64146E+06 6.61581E+04 4.03970E+04-1.24415E+06-5.32802E+04-4.76088E+06
 -1        56-3.90409E+06 3.17620E+05 1.89603E+06-1.09734E+06-1.10684E+06-2.86974E+06
 -1        57 1.67336E+06 1.34480E+05-4.53957E+05-4.91713E+05-1.59738E+05-5.25133E+06
 -1        58-4.09892E+06 2.62971E+05-5.13442E+00-3.61988E+05 2.97058E+05-4.98558E+06
 -1        59 1.35250E+06-2.23357E+00-3.11415E+00 1.61441E+05-1.08611E+00-4.98112E+06
 -1        60 3.10753E+06 1.43102E+04-8.97364E+04 7.21074E+05-3.77095E+04-4.99981E+06
 -1        61-4.05239E+06 1.07190E+03 6.03058E+05 8.41062E+05 3.02074E+05-3.24082E+06
 -1        62 1.61823E+06 2.07719E+05 3.61531E+04 1.82432E+05-1.21946E+05 5.58451E+06
 -1        63 2.35789E+06-6.74552E+00-2.52812E+01 2.93516E+05-4.21796E-01 3.87774E+06
 -1        64-1.27650E+06-5.45168E+04 2.37683E+05 8.88933E+05 9.15998E+04 2.51005E+06
 -1        65 3.52573E+06-2.68985E+03-1.01729E+05 1.38235E+06 5.22050E+04 4.93347E+06
 -1        66-2.14041E+06-5.70781E+00-2.79057E+01 7.17045E+05-1.44373E+00 2.62918E+06
 -1        67-4.57594E+06-3.87181E+00 9.85160E+05 9.54810E+05-3.39073E+04 2.71901E+05
 -1        68 3.48217E+06 1.58278E+04-5.69241E+04 1.51067E+05-2.05363E+04 5.08739E+06
 -1        69-2.03435E+06-9.76731E-01-1.53547E+01 8.75172E+05-7.79063E-01-3.00032E+06
 -1        70-8.75271E+06-1.32272E+07-6.75477E+07 1.96083E+05 3.85992E+05-7.21721E+03
 -1        71-1.56023E+06-8.79873E+06-4.69822E+07 5.65902E+05 1.47222E+06-3.20824E+04
 -1        72-1.56649E+06-8.96397E+06-4.23151E+07-4.59058E+04-1.25657E+06 1.77343E+06
 -1        73-1.68841E+06-9.13130E+06-4.82493E+07-6.86165E+04 1.63985E+06 3.13654E+05
 -1        74-2.77440E+06-1.01479E+07-4.74311E+07-4.80779E+05-9.57927E+04-1.55791E+06
 -1        75 1.11937E+06-1.12698E+07-2.36185E+07 9.79404E+05-1.14246E+06 8.93725E+05
 -1        76 3.36941E+05-4.54539E+06-2.37925E+07-6.97939E+03-1.12319E+06 7.75759E+05
 -1        77 8.38901E+05-5.22651E+06-6.28249E+07 2.76668E+05-1.72986E+05 3.05090E+05
 -1        78-2.18944E+05-1.32684E+07-4.18609E+07 7.83100E+05-6.68873E+04-1.91062E+05
 -1        79-3.68743E+06-1.09765E+07-5.90429E+07-7.57370E+05-9.81559E+05 5.26530E+03
 -1        80-3.38526E+06-8.43280E+06-7.07869E+07 7.87081E+05 9.50823E+05-2.68367E+05
 -1        81 1.55453E+06-1.41370E+07-2.91392E+07-3.51488E+05 8.45514E+05 7.46509E+04
 -1        82 1.56103E+06-5.16168E+06-2.68255E+07 3.30618E+05 7.85518E+05-7.04239E+05
 -1        83 6.86753E+05-5.03170E+06-6.41351E+07 3.03650E+05 6.74966E+05-6.53590E+04
 -1        84-5.07408E+06-1.14349E+07-6.37597E+07-2.45109E+05 2.16879E+06 5.00283E+05
 -1        85 1.27965E+05-1.54313E+07-4.76393E+07 5.94541E+05-9.08081E+05-2.70861E+06
 -1        86 1.23469E+06-1.42787E+07-2.77438E+07-3.62548E+05-3.42868E+05-2.47488E+05
 -1        87 2.45051E+04-5.24922E+06-2.61962E+07-1.13807E+05 2.48101E+05-1.00178E+06
 -1        88-6.96128E+05-5.67391E+06-6.55050E+07-3.54758E+05 3.29891E+04-3.17219E+05
 -1        89-1.46595E+06-1.38053E+07-6.63840E+07-6.64704E+05-1.13082E+06-2.78442E+06
 -1        90-3.04100E+06-9.40866E+06-7.41817E+07-1.37988E+06-1.21498E+06 8.71959E+05
 -1        91 1.37230E+06-1.19614E+07-2.62612E+07-1.49018E+05 1.66365E+06-1.64616E+05
 -1        92 1.23310E+06-4.62307E+06-2.62667E+07-1.34214E+05 8.53528E+05 6.10524E+05
 -1        93-4.16805E+06-1.20509E+07-5.92398E+07 8.83272E+05 1.29349E+06-6.15870E+04
 -1        94 1.57906E+06-5.30240E+06-6.68082E+07-2.28406E+05-3.39092E+04-4.87925E+05
 -1        95-1.18090E+07 1.23015E+05 8.52270E+05-1.28031E+06-2.65456E+05 6.81596E+05
 -1        96-1.79160E+06 4.23771E+05-1.79159E+07-9.17973E+04 5.95745E+05 5.61564E+06
 -1        97 5.59859E+05 1.74678E+05-1.81186E+07-2.19178E+05-1.16012E+05-6.72426E+06
 -1        98 5.98839E+05 3.76093E+05 4.89289E+06-4.73093E+05 5.47706E+05-6.35573E+06
 -1        99-9.28471E+05 3.79037E+05 4.89122E+06-9.51454E+05 4.37533E+04 5.41944E+06
 -1       100 3.81257E+06 5.22649E+04 2.41163E+06-7.03844E+05 4.19613E+05-5.02440E+06
 -1       101-2.29183E+06-1.88554E+05 3.17585E+06-6.02901E+05 1.70474E+05-2.60310E+06
 -1       102-7.00932E+06 1.95226E+05 4.21026E+06-4.67215E+05-1.88504E+05-4.42744E+05
 -1       103-5.42135E+06 6.05010E+05 4.02769E+06-1.10995E+06-1.58105E+05-4.34091E+06
 -1       104-5.88503E+06 1.48791E+05 3.18392E+06-1.47151E+06-5.18816E+05 3.87434E+06
 -1       105-2.52283E+06 1.08947E+05 3.17400E+06-9.63192E+05 2.41314E+05 2.51702E+06
 -1       106 3.26859E+06 8.99615E+04 2.30346E+06-7.11779E+05-2.40552E+05 4.62974E+06
 -1       107-7.37907E+06-3.95316E+05-9.33535E+06-1.01867E+06 9.69108E+04 4.45778E+06
 -1       108 1.30782E+07 3.69677E+05-6.22822E+06-1.54327E+06 9.48821E+03 3.64876E+06
 -1       109 3.79237E+06 1.39759E+05-7.70243E+05-2.07221E+06-6.53348E+04 4.84738E+06
 -1       110-5.68665E+06-1.15161E+06-3.23506E+07-3.77796E+05 4.73591E+05-6.92204E+05
 -1       111-2.21932E+06-6.14820E+05-4.63921E+07 7.73854E+05 6.43206E+05 3.52010E+06
 -1       112 3.53643E+06-2.69016E+04-1.37731E+07-4.42305E+05 5.32719E+05 3.13916E+06
 -1       113-6.30532E+06-9.76650E+04-8.20409E+06-8.75480E+05 6.50442E+05-5.30088E+06
 -1       114-1.02878E+06-6.45607E+05-4.59823E+07-6.33245E+05-5.82645E+05-3.46441E+06
 -1       115 4.13169E+06 4.62924E+05-1.34527E+05-3.47017E+05 4.67781E+05-5.52874E+06
 -1       116 1.33532E+07 2.66353E+05-6.61079E+06-8.59226E+05 4.74988E+04-5.41275E+06
 -1       117 5.17810E+06-1.82319E+05-1.43183E+07 4.98727E+05 1.17674E+05-3.48111E+06
 -1       118 1.21132E+07 6.79725E+04 2.27307E+06-7.37024E+05 5.79537E+05-5.62323E+06
 -1       119 1.13336E+07 1.02377E+05 2.05542E+06-7.19908E+05 1.63930E+05 4.46095E+06
 -1       120-1.22097E+07 1.04979E+06 3.55139E+06 8.33344E+05-5.42229E+05-1.67834E+06
 -1       121-1.89114E+06-9.15092E+05-1.33842E+07 1.04888E+06-1.68232E+05-5.47836E+06
 -1       122 1.15276E+05 1.69692E+05 4.95646E+06 8.70496E+05-1.52176E+05-5.51198E+06
 -1       123-1.73946E+05-2.76882E+05-1.49629E+07 8.33863E+05 8.04070E+04 6.96172E+06
 -1       124 4.88762E+05 1.98282E+05 5.15753E+06 1.23644E+05-8.74092E+04 6.05824E+06
 -1       125 1.28744E+07-3.28504E+05-5.80534E+06 7.59063E+05 9.91335E+05 4.64077E+06
 -1       126-6.35941E+06 8.85303E+05-5.43196E+06 9.54847E+05-2.20123E+03 4.80161E+06
 -1       127 4.62812E+06 2.14147E+04 9.06124E+05 5.91404E+05-1.47263E+05 5.66100E+06
 -1       128 3.46102E+06-5.72418E+04-1.19781E+07-7.17461E+04-5.23327E+05 3.36284E+06
 -1       129 1.18099E+07-3.11585E+05 2.01501E+06 5.71576E+04-4.88983E+05 5.54366E+06
 -1       130-4.89272E+06 4.35469E+04 5.64579E+06 1.66534E+06 4.98219E+04 4.10044E+06
 -1       131 3.09282E+06 1.89775E+05 2.40202E+06 8.51569E+05 5.04864E+05 5.16504E+06
 -1       132 1.24947E+07-3.80763E+05-5.02427E+06 1.47306E+06-7.35610E+05-3.74285E+06
 -1       133 4.87457E+06 2.21582E+05 6.05341E+05 1.54776E+06-1.87862E+05-5.41229E+06
 -1       134-8.44886E+06 6.14345E+04-4.52231E+06 5.82641E+05-8.78194E+05-4.63681E+06
 -1       135 3.17981E+06-4.78801E+05-1.14093E+07 3.63633E+05-2.05159E+04-3.08123E+06
 -1       136-1.89369E+06-2.77700E+05-4.32925E+07 3.32450E+05 7.88232E+05-3.47597E+06
 -1       137-6.07873E+06 8.94443E+05-2.96430E+07-1.71007E+05-4.93083E+05 3.32211E+05
 -1       138-1.99495E+06 1.18486E+05 3.60734E+06 1.25107E+06 1.04810E+05-2.77287E+06
 -1       139-6.69472E+06-8.45425E+04 5.46888E+06 1.46366E+06 3.45310E+05-1.01681E+06
 -1       140-3.84922E+06-7.78222E+04 4.67469E+06 5.46568E+05 7.99050E+04-5.24919E+06
 -1       141 2.97940E+06 2.48687E+05 2.40321E+06 1.02680E+06-3.95796E+05-5.10282E+06
 -1       142 1.18434E+07-3.14974E+05 1.91716E+06 6.51917E+05 1.81939E+05-4.91940E+06
 -1       143-1.46255E+06-2.11800E+05-4.36272E+07 2.53427E+05-1.29264E+06 3.75783E+06
 -1       144-2.20379E+06 8.55429E+04 3.61287E+06 3.09120E+05-3.82318E+04 2.42231E+06
 -1       145 1.40815E+07-4.38444E+05 1.53600E+06-3.16515E+05 1.16767E+05-5.56975E+06
 -1       146 1.01997E+07 7.84051E+05 1.82073E+06 3.35691E+05 1.65275E+05-5.19396E+06
 -1       147 1.40374E+07-4.47573E+06 3.19011E+06 1.63722E+06-1.01330E+05-4.17715E+06
 -1       148 1.69532E+07-3.75806E+06 7.77602E+05-1.97386E+06-2.16063E+05-2.82949E+06
 -1       149 1.26208E+07 3.74971E+05-4.27371E+04-7.28293E+05 4.85094E+04-7.37755E+05
 -1       150 7.61712E+06 1.08342E+05-4.29550E+05 2.89657E+04-2.12640E+05-2.13093E+06
 -1       151 7.74319E+06 3.61722E+05 3.47203E+03-1.13680E+06 3.03687E+05-2.37746E+06
 -1       152 1.02017E+07 2.92984E+05 5.46571E+05-3.55375E+05 9.07614E+04-3.52408E+06
 -1       153 8.00521E+06 3.43047E+05 6.01903E+05-1.48676E+05 1.72166E+04-4.67409E+06
 -1       154 1.14573E+07-6.08031E+04 1.17497E+06-3.55168E+05-3.64782E+05-6.43522E+06
 -1       155 1.42064E+07 1.40041E+05 7.00312E+05-3.80190E+05 3.89198E+05-9.45714E+05
 -1       156 8.40259E+06 4.30450E+05 3.43708E+05-2.24684E+05 1.34947E+05-3.72088E+06
 -1       157 2.11896E+07-4.24081E+04-1.27685E+06-1.80305E+06-2.26430E+05-2.03019E+06
 -1       158 1.68800E+07 2.32772E+05 5.49901E+05 3.41573E+05 3.67901E+05-4.49487E+06
 -1       159 2.13959E+07-8.03865E+05 7.50864E+05 5.75720E+05 2.13322E+05-4.71692E+06
 -1       160 2.43444E+07-2.06729E+06 9.28492E+05-6.82873E+04 3.84531E+05-3.80093E+06
 -1       161 2.00867E+07-2.76132E+06 2.13993E+04 1.31884E+06 3.41336E+05-6.06534E+06
 -1       162 1.11155E+07-3.59489E+06-5.66642E+05 7.96430E+05-1.34240E+05-1.69011E+06
 -1       163 9.46792E+06-1.06124E+07-2.79754E+06 9.51226E+05 6.52227E+05-2.97043E+06
 -1       164 1.47535E+07-7.17429E+06-5.22317E+06 3.70214E+05 9.13417E+05-3.04223E+06
 -1       165 1.16552E+07-9.74022E+06-3.64767E+06-6.96238E+05-4.71700E+04-1.42035E+06
 -1       166 1.85550E+07-1.78992E+06-5.03509E+05-1.32293E+06 4.16733E+05-5.15330E+06
 -1       167 2.20804E+07-1.64511E+06 1.37760E+06-1.66918E+06-2.84624E+05-4.38791E+06
 -1       168 1.92710E+07-3.37830E+05 1.02580E+06-1.89150E+06 2.71356E+05-4.47148E+06
 -1       169 1.30773E+07-2.89825E+06-1.40774E+06-1.13729E+06 1.01028E+05-1.20000E+06
 -1       170 1.34238E+07 1.17232E+06 5.66711E+06-8.65866E+04-3.63360E+05 6.01048E+06
 -1       171 1.53974E+07-2.51691E+06 1.71077E+06 1.28276E+06 9.58832E+05 2.61402E+06
 -1       172 1.32511E+07-2.00073E+06-4.04789E+06-2.72544E+06-1.06271E+06 5.04039E+06
 -1       173 1.23060E+07 1.12848E+06 7.63321E+05 1.34555E+06-1.62634E+05 2.37959E+06
 -1       174 1.36268E+07 7.89458E+05-1.80284E+05-7.51937E+05 1.16765E+05 1.05776E+06
 -1       175 2.01945E+07 4.49114E+05-6.58856E+05 1.47093E+06-5.16317E+05 2.73952E+06
 -1       176 7.37419E+06 4.45329E+05 3.46240E+05 1.51704E+06 2.91224E+05 2.98178E+06
 -1       177 1.81813E+07 1.50993E+06 3.52119E+05-6.33131E+05-2.79292E+05 5.67642E+06
 -1       178 2.09675E+07 4.29913E+05 1.21028E+06 1.75784E+05-1.00217E+06 3.40137E+06
 -1       179 2.08917E+07-1.02369E+06 1.56848E+06 1.00765E+06 5.17879E+04 3.55147E+06
 -1       180 1.24846E+07-1.83480E+06-1.49549E+06 1.47503E+06 3.51656E+04 1.03850E+06
 -1       181 1.33639E+07-8.31811E+05 4.28018E+06 2.58804E+05 2.59753E+05 2.16337E+06
 -1       182 2.24462E+07-6.98536E+05-1.42242E+06-1.82017E+04-2.35735E+05 3.33281E+06
 -1       183 1.32440E+07-5.55636E+04 6.19528E+05-2.79072E+06-1.90561E+06 6.17955E+06
 -1       184 1.94542E+07 7.52257E+05 1.31530E+06-2.56677E+05 3.44672E+05 4.90006E+06
 -1       185 9.72610E+06-1.98667E+06-1.78401E+06-1.17456E+06-9.11318E+05 2.42755E+06
 -1       186 7.55903E+06-7.81349E+06-2.37041E+06-2.85031E+06 5.60114E+05 3.69986E+06
 -1       187 9.92988E+06-5.12244E+06 3.35648E+06 3.54440E+05-6.80981E+04 4.20111E+06
 -1       188 7.29286E+06 9.25912E+05 2.65506E+05-3.58759E+05-3.70431E+05 3.04941E+06
 -1       189 1.27549E+07 1.27430E+06 4.53540E+04-1.00810E+06 2.15683E+04 5.32107E+06
 -1       190 2.05414E+07 4.49176E+05-8.76917E+05-1.11062E+06 4.74341E+05 1.90622E+06
 -1       191 1.76100E+07 1.09126E+06 7.57892E+05 4.73468E+05-1.32782E+05 1.54432E+06
 -1       192 7.95887E+06 3.98211E+05-1.66422E+05-1.36439E+06-2.52765E+05 2.66592E+06
 -1       193 7.71311E+06 3.39186E+05-5.56413E+05 5.40700E+04 2.75822E+05 2.68550E+06
 -1       194 9.76421E+06-7.84327E+06-7.84116E+05 1.15246E+06 3.92025E+05 1.62306E+06
 -1       195-1.28130E+07 1.53316E+06 6.82712E+06 1.31433E+06 1.04338E+05 4.04037E+06
 -1       196-1.53146E+07-1.75601E+06-8.95205E+06-3.57109E+05 1.14078E+06-4.31562E+06
 -1       197 5.51418E+05 3.01795E+05 3.57499E+06-8.66083E+05 3.92456E+04-5.43997E+06
 -1       198-5.76235E+06 4.39548E+05 4.49259E+06-8.50434E+05-8.32068E+04-3.52965E+06
 -1       199-5.19350E+06-9.88447E+04-2.24352E+05-1.39156E+06 7.12796E+05-6.53841E+06
 -1       200-1.26302E+07-6.07912E+05-4.44177E+06-7.90227E+05 3.71403E+05-1.89574E+06
 -1       201-6.46221E+06 3.12630E+05 1.18605E+06-6.61218E+05 9.47971E+05-5.24544E+06
 -1       202 8.41627E+06-1.83343E+06-5.42551E+06 1.40386E+06 9.07572E+04-4.69860E+06
 -1       203 7.00472E+06-2.75731E+06-6.35993E+06 1.31136E+06-4.95935E+05-4.32761E+06
 -1       204-1.06621E+07-2.44582E+06-1.08934E+07 1.26208E+06 1.52589E+05-3.90507E+06
 -1       205-1.93437E+06-3.58163E+06-4.59285E+06 8.13195E+05 5.57151E+05-3.25453E+06
 -1       206-1.47152E+06-1.04470E+06-2.04525E+06 6.56494E+04 2.32349E+05-6.17971E+06
 -1       207-4.35737E+06-6.92400E+06-4.17760E+07 7.91897E+05 1.10631E+06-5.37539E+06
 -1       208-1.19722E+06-4.29042E+06-3.11511E+07 3.09067E+05 1.08006E+06-3.61838E+06
 -1       209 6.08159E+06-3.86661E+06-1.31602E+07 1.18495E+06 1.65353E+05 4.59260E+06
 -1       210 5.94659E+06-5.72003E+06-1.79081E+07 1.06165E+06-4.32191E+04 2.67404E+06
 -1       211 5.72753E+05-7.66915E+06-3.42682E+07-1.14337E+06 8.66228E+05 3.52995E+06
 -1       212 4.31898E+06-5.42450E+06-2.20227E+07-1.40904E+06 3.35498E+05 2.98715E+06
 -1       213 5.97826E+06 9.21986E+05 2.79692E+06-4.38438E+05 6.28148E+04 6.94504E+06
 -1       214 6.11873E+06 6.13784E+05 1.97280E+06-5.65903E+05 2.48252E+04 4.00295E+06
 -1       215 6.27651E+06 3.18299E+05-2.78813E+04-1.00728E+06-2.06664E+05-3.35081E+06
 -1       216 5.76955E+06 4.62677E+05 2.15903E+06-9.00628E+05 1.98254E+05-4.47836E+06
 -1       217-5.34491E+06-6.37671E+06-3.87695E+07 5.86055E+05-9.07048E+05 4.58376E+06
 -1       218-5.65553E+05-4.20222E+06-2.96058E+07 1.18687E+05-1.14056E+06 4.92744E+06
 -1       219-1.00282E+07-4.95285E+06-2.70249E+07 8.46039E+05-3.48253E+05-3.06907E+05
 -1       220-1.70576E+07-5.80209E+05-1.28908E+06 5.53387E+05-5.99745E+04-3.48368E+06
 -1       221-1.27677E+07-7.23903E+06-3.73182E+07-2.04368E+05 1.40700E+06-1.38799E+06
 -1       222-2.71326E+05-5.10735E+06-2.43104E+07 4.49815E+05-2.92719E+05 4.70370E+06
 -1       223-4.59718E+06-1.83657E+06-1.22671E+07-6.51274E+05-1.95644E+05 3.21152E+06
 -1       224-6.88795E+06 6.88328E+04-3.65310E+06-2.41569E+05-2.25963E+05 2.68128E+06
 -1       225-2.90132E+06 4.45437E+05 7.80719E+05-1.35765E+06-1.64620E+05 5.33683E+06
 -1       226-6.57665E+06 7.23526E+05 6.60331E+06-8.59516E+05 7.85748E+04 4.57111E+06
 -1       227-1.13447E+07 3.93111E+05 3.55309E+06-9.06782E+05-3.42249E+05 3.17824E+06
 -1       228 7.85391E+04 1.09941E+06 4.53400E+06 3.15632E+05-1.11867E+05 6.09230E+06
 -1       229-3.04427E+05 8.75225E+05 2.55620E+06-9.82386E+05-3.17044E+04-3.92334E+06
 -1       230-1.08971E+07 3.97247E+05 2.11041E+06 1.35448E+05 5.53926E+05-2.55912E+06
 -1       231-5.97617E+06 3.90440E+05-3.83193E+06 1.43364E+06 9.99408E+05 6.32197E+06
 -1       232-1.13090E+07-4.11077E+06-2.13152E+07-2.25216E+05-6.39330E+05 4.10928E+06
 -1       233-1.32620E+07 1.17648E+06 4.80214E+06 1.13811E+06-1.95510E+05 1.24281E+06
 -1       234-9.26249E+06 4.99144E+05 5.43762E+06-6.89745E+05-3.40755E+05-1.42909E+05
 -1       235-8.55338E+05-2.06610E+05 8.84588E+05 7.19023E+05-8.01146E+04-5.24387E+06
 -1       236-4.11389E+06 5.05289E+05 2.51504E+06 3.77190E+05-5.36572E+05-3.89710E+06
 -1       237-9.68643E+06 1.19247E+06 5.88724E+06 7.14697E+05 5.88966E+05 1.71806E+06
 -1       238-1.38280E+07-1.45279E+05-1.49205E+06 6.85270E+05 1.00953E+06-8.56334E+04
 -1       239 4.82054E+06-6.95224E+06-1.95298E+07-1.43225E+06-2.45340E+05-1.77108E+06
 -1       240-2.42478E+06-8.52376E+06-1.21880E+07-9.70533E+05 9.69935E+05-3.46214E+06
 -1       241-6.74847E+06-6.14665E+06-2.89034E+07-1.43091E+06 1.08440E+06-5.24207E+06
 -1       242 1.68407E+06-2.76140E+06-6.74623E+06-1.89242E+06 8.63561E+04-4.82355E+06
 -1       243-1.00145E+06-4.12399E+06-3.30348E+07-7.65972E+04-1.73216E+05-4.91279E+06
 -1       244-7.77736E+06-2.49275E+06-3.87905E+07-6.42338E+05 2.40274E+05-1.83202E+06
 -1       245-7.02438E+06-1.44482E+06-1.30707E+07-9.42899E+05 3.43256E+05-6.98923E+06
 -1       246 8.95673E+06-1.94332E+06-9.25067E+06-1.12794E+06 1.40439E+05-4.37021E+06
 -1       247 4.50901E+06-7.88578E+05-3.34307E+06-1.29382E+06 2.91047E+05-5.77383E+06
 -1       248 6.58433E+06 5.27815E+05 2.54920E+06 6.49600E+05-3.73519E+04 4.50995E+06
 -1       249-6.29779E+06 9.68901E+05 6.32573E+06 1.16473E+06-2.15396E+05 6.35132E+06
 -1       250-4.75942E+05 1.51383E+06 3.68175E+06 2.19161E+06-1.96978E+05 5.12657E+06
 -1       251 3.73434E+06 7.95202E+05 2.35584E+06 1.34786E+06-1.77941E+05 5.85558E+06
 -1       252 1.26247E+06 1.39672E+05 2.49783E+06 6.46974E+05-1.26946E+05 5.32483E+06
 -1       253-7.58080E+06 8.18234E+05 5.35366E+06 1.22509E+06 5.77507E+04 1.17618E+06
 -1       254-4.76964E+06 9.01905E+05 4.50756E+06 1.44774E+06-8.42058E+04 5.27252E+06
 -1       255 6.36312E+06 3.96383E+05 8.42547E+05 1.11367E+06-1.37051E+05 3.50245E+06
 -1       256-2.60240E+06 1.32408E+06 3.62929E+06 4.94412E+05-1.71195E+05 5.54020E+06
 -1       257-6.60496E+06 8.50724E+05 5.36000E+06 8.42929E+05-1.42879E+05-3.21895E+06
 -1       258-9.74940E+06-1.03973E+06-1.68382E+07 5.16340E+05 3.00871E+05 2.80537E+06
 -1       259-6.46837E+06 8.01696E+05 5.31065E+06-9.62276E+04-4.94949E+04 4.05931E+06
 -1       260 7.78090E+05 6.00802E+04 2.69521E+06 7.37234E+05 2.86233E+04-4.79956E+06
 -1       261 6.33728E+06 3.56484E+05 7.96933E+05 3.05046E+05 2.86740E+05-4.72599E+06
 -1       262 4.89289E+06-6.90579E+06-1.95117E+07 1.50091E+06 2.22576E+05-2.51286E+06
 -1       263 6.82226E+06-1.10982E+06-1.13406E+07-1.38249E+06-4.90521E+05 4.53795E+06
 -1       264 6.10260E+06 4.22796E+05 5.53538E+04-1.20405E+06 3.06301E+05 3.90484E+06
 -1       265 6.31406E+06 3.87360E+05 2.24766E+06-4.52766E+05 4.28570E+05-4.08921E+06
 -1       266-1.98120E+05 2.80632E+05 3.06483E+06-1.10770E+06 2.81515E+05 5.06613E+06
 -1       267 8.71855E+06-1.54243E+06-7.92346E+06 1.02195E+06 6.74380E+05 4.79273E+06
 -1       268 4.57978E+06 5.11524E+05 3.14109E+06 5.84960E+05 1.85958E+04-5.29879E+06
 -1       269-1.06298E+06-3.57818E+06-3.28800E+07 2.38328E+05 9.05238E+05 3.52858E+06
 -1       270 5.59293E+05-8.36878E+06-3.48613E+07 1.46943E+06 2.20710E+05-4.12104E+06
 -1       271-1.24601E+06 8.73986E+05 2.30582E+06 9.27582E+05 6.45775E+05-3.94164E+06
 -1       272-3.91382E+06 1.06863E+06 3.90163E+06 1.55341E+06-2.35079E+05-3.26123E+06
 -1       273 5.79395E+06 2.93757E+05 3.32573E+06-7.57530E+05 8.73465E+05-5.63460E+06
 -1       274-3.77711E+05-1.08446E+06-6.25998E+06-1.58369E+06-1.69995E+05 5.18824E+06
 -1       275-6.45639E+06-6.88339E+06-4.13981E+07-1.94038E+05 3.92634E+05 4.61847E+06
 -1       276-3.97252E+06 4.86166E+05 3.81338E+06-6.78582E+05 2.72091E+05 2.43588E+06
 -1       277 6.65101E+06-3.19113E+05-3.07959E+06 1.39383E+06 6.64661E+05 5.53858E+06
 -1       278-2.85583E+05 5.71087E+05 2.53791E+06 1.12889E+06-9.59016E+04-4.69078E+06
 -1       279 7.83617E+06 7.95146E+05 1.48399E+06-1.08288E+06-5.96754E+04 6.12696E+06
 -1       280-3.95734E+06 2.57658E+05 3.78449E+06 9.02402E+05 1.29235E+05-2.74891E+06
 -3
    1PSTEP                        30           1           1          
    1PGM                1.000000E+00                                  
    1PGK                2.158962E+12                                  
    1PHID                         -1                                  
    1PSUBC                         0                                  
    1PMODE                        10                                  
  100CL  110 2.33853E+05         280                     2   10MODAL      1
 -4  TOSTRAIN    6    1
 -5  EXX         1    4    1    1
 -5  EYY         1    4    2    2
 -5  EZZ         1    4    3    3
 -5  EXY         1    4    1    2
 -5  EYZ         1    4    2    3
 -5  EZX         1    4    3    1
 -1         1 2.42919E+01 1.16836E+00 1.77690E+00-6.74172E+00 2.82185E+00-2.10962E+01
 -1         2 2.23150E+01 1.28083E-01 1.35965E+00-7.62257E+00-3.35049E+00 2.15155E+01
 -1         3 2.08910E+01 1.67472E+00 7.21950E-01 4.12662E+00-3.26530E+00-2.44189E+01
 -1         4 1.91285E+01 7.78682E-01 1.18787E+00 8.45926E+00 4.24996E+00 2.26927E+01
 -1         5 3.68199E+01-5.56374E+00-3.53301E+01 2.63872E+00 1.23899E+00-3.71091E-01
 -1         6 2.93116E+01-4.44015E+00-3.35323E+01-1.98639E+00 2.53222E+00 1.47702E+00
 -1         7 3.17696E+01-7.80065E+00-3.27621E+01 3.29344E-01 7.00434E-01-1.37572E+00
 -1         8 3.13458E+01-3.20187E+00-2.77912E+01 1.02226E+00-4.25289E+00 4.13056E-01
 -1         9-2.11049E+01-4.76759E-01 3.46721E+00-2.80688E+00 8.39647E-01 1.17390E+00
 -1        10 7.83314E+00 4.09523E-06-6.54221E-05-4.71887E+00 5.56222E-06-1.73521E+01
 -1        11 1.05430E+01-3.57189E-06-6.72836E-05-4.27300E+00-1.22015E-05 1.72856E+01
 -1        12 1.53427E+01 2.31852E-01-1.40471E+00-1.79561E+00-1.65766E-01-2.43661E+01
 -1        13 4.90612E+00-2.76212E-06 6.02917E-06-3.43331E+00 3.05817E-06-2.45411E+01
 -1        14 4.23133E+00-3.01665E-06-1.28466E-05-1.68236E+00-1.08682E-05-2.68589E+01
 -1        15-1.77986E+01-2.63620E-01 7.71156E+00 4.74219E+00 3.49240E-01-1.03139E+00
 -1        16 1.25377E+01-4.29302E-06-7.01433E-05 3.36634E+00-7.50562E-06-2.14375E+01
 -1        17 3.78762E+00-5.55677E-06-6.20280E-05 5.97737E+00 5.16192E-06 2.08508E+01
 -1        18 2.29590E+01 2.10382E+00-2.25147E+00-8.46774E-01-8.49750E-01 2.52937E+01
 -1        19-4.50602E-01-7.11388E-06 9.06756E-06-4.03397E+00-5.55469E-06 2.74304E+01
 -1        20-1.56286E+00-8.64666E-06-1.48390E-05 4.03271E+00 8.12063E-06 2.80820E+01
 -1        21-5.63402E+00-1.09396E+01-3.75363E+02 3.30938E-01-2.03846E+00 2.23970E+00
 -1        22 9.58839E+00-7.46515E-01-2.31256E+02-2.76011E-01-5.37889E+00-3.00388E+00
 -1        23 1.28449E+01-5.16322E-01-2.36502E+02 2.53518E-01 4.18178E-01 6.90933E+00
 -1        24 3.39864E+01-8.25272E+01-5.66796E+01-7.63095E-01 1.74225E+00-1.25095E+00
 -1        25 2.13693E+01-4.84585E+01-1.65631E+01-9.88681E-02 2.00056E-01 4.61070E-01
 -1        26 1.54350E+01-5.35411E+01-2.24278E+01 1.52002E+00 9.31926E-01-2.56972E+00
 -1        27-2.60093E+00-6.68236E+00-3.68496E+02 1.01359E+00 1.18843E-01 3.21433E-01
 -1        28 1.19041E+01 5.89862E-02-2.22329E+02-1.15225E+00 3.26623E+00-8.99919E+00
 -1        29 9.41057E+00 4.18304E-01-2.17674E+02-3.52089E-01-3.86633E+00 9.09017E+00
 -1        30 2.65863E+01-6.76135E+01-3.63253E+01 1.43869E-01 8.69570E-01 1.75410E+00
 -1        31 1.98145E+01-4.10206E+01-1.69144E+01-8.58536E+00 6.59256E+00 4.58260E-01
 -1        32 1.98012E+01-3.80464E+01-9.99224E+00 7.28907E+00-7.40326E+00-1.24029E-01
 -1        33 1.24202E+02 5.74271E-01 7.33991E+00-6.98118E+00 5.25319E-01-2.44474E+01
 -1        34 8.02765E+01-8.00643E-01-4.29065E+00-6.45415E+00 1.28049E+00-1.35585E+01
 -1        35 1.00090E+02-2.70371E+00-5.42488E+00-1.44225E+00 1.48724E+00-1.07646E+01
 -1        36 1.26424E+02 2.04952E+00 6.56138E+00-3.96456E+00 2.29122E+00 1.62736E+01
 -1        37 7.35455E+01-1.34171E+00-1.57517E+00-4.60887E+00-1.00785E+00 1.26525E+01
 -1        38 9.91459E+01-2.62479E+00-1.03680E+01-1.66103E+00 2.35914E+00 6.47722E+00
 -1        39 1.25346E+02-2.24938E-01 3.66695E+00 4.15977E+00-1.18333E-01-1.95358E+01
 -1        40 7.11009E+01-1.35938E+00-1.84945E-01 3.23294E-01-1.33872E+00-1.45734E+01
 -1        41 1.04901E+02-4.96310E+00-9.75839E+00 4.39635E+00-2.07729E+00-7.55898E+00
 -1        42 1.20200E+02 7.65011E-03 1.36385E+00 2.78354E+00-9.43955E-01 1.98698E+01
 -1        43 7.61502E+01-1.53198E+00-2.56178E+00 1.87944E+00 1.35399E+00 1.24206E+01
 -1        44 9.65430E+01-3.86906E+00-9.45140E+00 2.89850E+00-1.76898E+00 8.80015E+00
 -1        45-3.82196E+01 2.93994E+00 1.36012E+01 1.83140E-01 1.56564E+00-2.53451E+00
 -1        46-1.53304E+00 6.94785E-01 4.54261E+00-4.69416E+00 3.59454E-01 2.56543E+01
 -1        47 1.75703E+00 1.39642E+00 8.27159E+00-5.29626E+00-2.09508E+00-2.33832E+01
 -1        48 9.04442E+00-2.59486E-01 1.46624E+00 5.28866E+00-2.46820E-01 2.34878E+01
 -1        49 5.44856E+00-4.21810E-01 1.04553E+00 3.25153E+00 3.11889E-01-2.29078E+01
 -1        50 1.70893E+01-7.28701E-02 3.55865E-01-5.89648E+00 1.41509E-01 2.48793E+01
 -1        51-1.02858E+01-3.13002E-06-7.67651E-05-3.68293E+00-7.68167E-06 1.36339E+01
 -1        52-2.58636E+01-5.50243E-06 5.03547E+00-4.32310E+00 5.34423E-01-5.69982E-01
 -1        53-1.40642E+01 1.06830E+00-1.07126E+00-1.01610E+00-1.39518E-03 1.44785E+01
 -1        54-1.11714E+01-6.30283E-01 3.88084E+00-3.93275E+00 1.62535E+00-7.50603E+00
 -1        55 1.82073E+01 3.30790E-01 2.01985E-01-6.22073E+00-2.66401E-01-2.38044E+01
 -1        56-1.95205E+01 1.58810E+00 9.48017E+00-5.48671E+00-5.53422E+00-1.43487E+01
 -1        57 8.36678E+00 6.72402E-01-2.26979E+00-2.45857E+00-7.98689E-01-2.62566E+01
 -1        58-2.04946E+01 1.31485E+00-2.56721E-05-1.80994E+00 1.48529E+00-2.49279E+01
 -1        59 6.76252E+00-1.11679E-05-1.55707E-05 8.07203E-01-5.43053E-06-2.49056E+01
 -1        60 1.55377E+01 7.15509E-02-4.48682E-01 3.60537E+00-1.88548E-01-2.49990E+01
 -1        61-2.02620E+01 5.35950E-03 3.01529E+00 4.20531E+00 1.51037E+00-1.62041E+01
 -1        62 8.09114E+00 1.03859E+00 1.80766E-01 9.12160E-01-6.09728E-01 2.79225E+01
 -1        63 1.17895E+01-3.37276E-05-1.26406E-04 1.46758E+00-2.10898E-06 1.93887E+01
 -1        64-6.38251E+00-2.72584E-01 1.18842E+00 4.44466E+00 4.57999E-01 1.25502E+01
 -1        65 1.76287E+01-1.34492E-02-5.08644E-01 6.91173E+00 2.61025E-01 2.46673E+01
 -1        66-1.07020E+01-2.85391E-05-1.39529E-04 3.58522E+00-7.21863E-06 1.31459E+01
 -1        67-2.28797E+01-1.93591E-05 4.92580E+00 4.77405E+00-1.69536E-01 1.35951E+00
 -1        68 1.74108E+01 7.91391E-02-2.84620E-01 7.55335E-01-1.02682E-01 2.54370E+01
 -1        69-1.01717E+01-4.88366E-06-7.67733E-05 4.37586E+00-3.89531E-06-1.50016E+01
 -1        70-4.37636E+01-6.61361E+01-3.37738E+02 9.80417E-01 1.92996E+00-3.60860E-02
 -1        71-7.80114E+00-4.39936E+01-2.34911E+02 2.82951E+00 7.36110E+00-1.60412E-01
 -1        72-7.83245E+00-4.48198E+01-2.11576E+02-2.29529E-01-6.28283E+00 8.86715E+00
 -1        73-8.44203E+00-4.56565E+01-2.41246E+02-3.43083E-01 8.19926E+00 1.56827E+00
 -1        74-1.38720E+01-5.07394E+01-2.37155E+02-2.40389E+00-4.78963E-01-7.78954E+00
 -1        75 5.59686E+00-5.63492E+01-1.18093E+02 4.89702E+00-5.71231E+00 4.46862E+00
 -1        76 1.68471E+00-2.27270E+01-1.18963E+02-3.48969E-02-5.61594E+00 3.87879E+00
 -1        77 4.19450E+00-2.61326E+01-3.14124E+02 1.38334E+00-8.64931E-01 1.52545E+00
 -1        78-1.09472E+00-6.63420E+01-2.09304E+02 3.91550E+00-3.34436E-01-9.55309E-01
 -1        79-1.84371E+01-5.48826E+01-2.95214E+02-3.78685E+00-4.90780E+00 2.63265E-02
 -1        80-1.69263E+01-4.21640E+01-3.53935E+02 3.93541E+00 4.75412E+00-1.34183E+00
 -1        81 7.77264E+00-7.06848E+01-1.45696E+02-1.75744E+00 4.22757E+00 3.73254E-01
 -1        82 7.80517E+00-2.58084E+01-1.34128E+02 1.65309E+00 3.92759E+00-3.52120E+00
 -1        83 3.43376E+00-2.51585E+01-3.20676E+02 1.51825E+00 3.37483E+00-3.26795E-01
 -1        84-2.53704E+01-5.71744E+01-3.18799E+02-1.22554E+00 1.08439E+01 2.50141E+00
 -1        85 6.39826E-01-7.71565E+01-2.38197E+02 2.97271E+00-4.54040E+00-1.35431E+01
 -1        86 6.17344E+00-7.13936E+01-1.38719E+02-1.81274E+00-1.71434E+00-1.23744E+00
 -1        87 1.22525E-01-2.62461E+01-1.30981E+02-5.69034E-01 1.24051E+00-5.00889E+00
 -1        88-3.48064E+00-2.83695E+01-3.27525E+02-1.77379E+00 1.64946E-01-1.58610E+00
 -1        89-7.32977E+00-6.90267E+01-3.31920E+02-3.32352E+00-5.65411E+00-1.39221E+01
 -1        90-1.52050E+01-4.70433E+01-3.70908E+02-6.89942E+00-6.07493E+00 4.35980E+00
 -1        91 6.86152E+00-5.98068E+01-1.31306E+02-7.45090E-01 8.31823E+00-8.23080E-01
 -1        92 6.16552E+00-2.31154E+01-1.31334E+02-6.71072E-01 4.26764E+00 3.05262E+00
 -1        93-2.08402E+01-6.02546E+01-2.96199E+02 4.41636E+00 6.46747E+00-3.07935E-01
 -1        94 7.89531E+00-2.65120E+01-3.34041E+02-1.14203E+00-1.69546E-01-2.43962E+00
 -1        95-5.90450E+01 6.15077E-01 4.26135E+00-6.40157E+00-1.32728E+00 3.40798E+00
 -1        96-8.95800E+00 2.11885E+00-8.95796E+01-4.58986E-01 2.97873E+00 2.80782E+01
 -1        97 2.79930E+00 8.73390E-01-9.05928E+01-1.09589E+00-5.80060E-01-3.36213E+01
 -1        98 2.99420E+00 1.88047E+00 2.44644E+01-2.36547E+00 2.73853E+00-3.17786E+01
 -1        99-4.64235E+00 1.89518E+00 2.44561E+01-4.75727E+00 2.18767E-01 2.70972E+01
 -1       100 1.90628E+01 2.61324E-01 1.20582E+01-3.51922E+00 2.09806E+00-2.51220E+01
 -1       101-1.14592E+01-9.42768E-01 1.58793E+01-3.01451E+00 8.52371E-01-1.30155E+01
 -1       102-3.50466E+01 9.76128E-01 2.10513E+01-2.33607E+00-9.42522E-01-2.21372E+00
 -1       103-2.71067E+01 3.02505E+00 2.01385E+01-5.54974E+00-7.90527E-01-2.17046E+01
 -1       104-2.94251E+01 7.43954E-01 1.59196E+01-7.35756E+00-2.59408E+00 1.93717E+01
 -1       105-1.26142E+01 5.44736E-01 1.58700E+01-4.81596E+00 1.20657E+00 1.25851E+01
 -1       106 1.63430E+01 4.49808E-01 1.15173E+01-3.55890E+00-1.20276E+00 2.31487E+01
 -1       107-3.68953E+01-1.97658E+00-4.66767E+01-5.09336E+00 4.84554E-01 2.22889E+01
 -1       108 6.53911E+01 1.84839E+00-3.11411E+01-7.71637E+00 4.74410E-02 1.82438E+01
 -1       109 1.89619E+01 6.98796E-01-3.85122E+00-1.03611E+01-3.26674E-01 2.42369E+01
 -1       110-2.84332E+01-5.75807E+00-1.61753E+02-1.88898E+00 2.36796E+00-3.46102E+00
 -1       111-1.10966E+01-3.07410E+00-2.31960E+02 3.86927E+00 3.21603E+00 1.76005E+01
 -1       112 1.76822E+01-1.34508E-01-6.88657E+01-2.21152E+00 2.66359E+00 1.56958E+01
 -1       113-3.15266E+01-4.88325E-01-4.10204E+01-4.37740E+00 3.25221E+00-2.65044E+01
 -1       114-5.14391E+00-3.22804E+00-2.29912E+02-3.16623E+00-2.91323E+00-1.73221E+01
 -1       115 2.06584E+01 2.31462E+00-6.72636E-01-1.73509E+00 2.33891E+00-2.76437E+01
 -1       116 6.67659E+01 1.33176E+00-3.30540E+01-4.29613E+00 2.37494E-01-2.70638E+01
 -1       117 2.58905E+01-9.11596E-01-7.15916E+01 2.49364E+00 5.88368E-01-1.74055E+01
 -1       118 6.05658E+01 3.39862E-01 1.13653E+01-3.68512E+00 2.89768E+00-2.81162E+01
 -1       119 5.66682E+01 5.11885E-01 1.02771E+01-3.59954E+00 8.19649E-01 2.23048E+01
 -1       120-6.10486E+01 5.24895E+00 1.77570E+01 4.16672E+00-2.71115E+00-8.39170E+00
 -1       121-9.45568E+00-4.57546E+00-6.69209E+01 5.24438E+00-8.41158E-01-2.73918E+01
 -1       122 5.76379E-01 8.48460E-01 2.47823E+01 4.35248E+00-7.60878E-01-2.75599E+01
 -1       123-8.69731E-01-1.38441E+00-7.48144E+01 4.16931E+00 4.02035E-01 3.48086E+01
 -1       124 2.44381E+00 9.91409E-01 2.57876E+01 6.18221E-01-4.37046E-01 3.02912E+01
 -1       125 6.43720E+01-1.64252E+00-2.90267E+01 3.79531E+00 4.95667E+00 2.32038E+01
 -1       126-3.17971E+01 4.42651E+00-2.71598E+01 4.77424E+00-1.10062E-02 2.40080E+01
 -1       127 2.31406E+01 1.07074E-01 4.53062E+00 2.95702E+00-7.36316E-01 2.83050E+01
 -1       128 1.73051E+01-2.86209E-01-5.98907E+01-3.58730E-01-2.61663E+00 1.68142E+01
 -1       129 5.90495E+01-1.55793E+00 1.00751E+01 2.85788E-01-2.44491E+00 2.77183E+01
 -1       130-2.44636E+01 2.17734E-01 2.82289E+01 8.32670E+00 2.49110E-01 2.05022E+01
 -1       131 1.54641E+01 9.48876E-01 1.20101E+01 4.25785E+00 2.52432E+00 2.58252E+01
 -1       132 6.24733E+01-1.90381E+00-2.51213E+01 7.36528E+00-3.67805E+00-1.87142E+01
 -1       133 2.43728E+01 1.10791E+00 3.02671E+00 7.73879E+00-9.39310E-01-2.70615E+01
 -1       134-4.22443E+01 3.07172E-01-2.26115E+01 2.91321E+00-4.39097E+00-2.31841E+01
 -1       135 1.58991E+01-2.39400E+00-5.70465E+01 1.81817E+00-1.02580E-01-1.54061E+01
 -1       136-9.46844E+00-1.38850E+00-2.16462E+02 1.66225E+00 3.94116E+00-1.73799E+01
 -1       137-3.03937E+01 4.47222E+00-1.48215E+02-8.55037E-01-2.46542E+00 1.66105E+00
 -1       138-9.97474E+00 5.92429E-01 1.80367E+01 6.25533E+00 5.24047E-01-1.38644E+01
 -1       139-3.34736E+01-4.22713E-01 2.73444E+01 7.31831E+00 1.72655E+00-5.08405E+00
 -1       140-1.92461E+01-3.89111E-01 2.33735E+01 2.73284E+00 3.99525E-01-2.62459E+01
 -1       141 1.48970E+01 1.24344E+00 1.20160E+01 5.13398E+00-1.97898E+00-2.55141E+01
 -1       142 5.92168E+01-1.57487E+00 9.58582E+00 3.25959E+00 9.09694E-01-2.45970E+01
 -1       143-7.31274E+00-1.05900E+00-2.18136E+02 1.26714E+00-6.46319E+00 1.87891E+01
 -1       144-1.10189E+01 4.27714E-01 1.80644E+01 1.54560E+00-1.91159E-01 1.21115E+01
 -1       145 7.04076E+01-2.19222E+00 7.68001E+00-1.58258E+00 5.83834E-01-2.78487E+01
 -1       146 5.09987E+01 3.92026E+00 9.10367E+00 1.67846E+00 8.26373E-01-2.59698E+01
 -1       147 7.01868E+01-2.23786E+01 1.59505E+01 8.18611E+00-5.06652E-01-2.08857E+01
 -1       148 8.47660E+01-1.87903E+01 3.88801E+00-9.86930E+00-1.08032E+00-1.41475E+01
 -1       149 6.31042E+01 1.87486E+00-2.13686E-01-3.64146E+00 2.42547E-01-3.68877E+00
 -1       150 3.80856E+01 5.41708E-01-2.14775E+00 1.44829E-01-1.06320E+00-1.06547E+01
 -1       151 3.87160E+01 1.80861E+00 1.73602E-02-5.68399E+00 1.51844E+00-1.18873E+01
 -1       152 5.10083E+01 1.46492E+00 2.73286E+00-1.77688E+00 4.53807E-01-1.76204E+01
 -1       153 4.00261E+01 1.71524E+00 3.00952E+00-7.43380E-01 8.60832E-02-2.33705E+01
 -1       154 5.72866E+01-3.04015E-01 5.87485E+00-1.77584E+00-1.82391E+00-3.21761E+01
 -1       155 7.10319E+01 7.00206E-01 3.50156E+00-1.90095E+00 1.94599E+00-4.72857E+00
 -1       156 4.20129E+01 2.15225E+00 1.71854E+00-1.12342E+00 6.74733E-01-1.86044E+01
 -1       157 1.05948E+02-2.12041E-01-6.38424E+00-9.01525E+00-1.13215E+00-1.01509E+01
 -1       158 8.43998E+01 1.16386E+00 2.74951E+00 1.70786E+00 1.83950E+00-2.24743E+01
 -1       159 1.06979E+02-4.01933E+00 3.75432E+00 2.87860E+00 1.06661E+00-2.35846E+01
 -1       160 1.21722E+02-1.03365E+01 4.64246E+00-3.41437E-01 1.92266E+00-1.90046E+01
 -1       161 1.00433E+02-1.38066E+01 1.06997E-01 6.59418E+00 1.70668E+00-3.03267E+01
 -1       162 5.55775E+01-1.79745E+01-2.83321E+00 3.98215E+00-6.71198E-01-8.45054E+00
 -1       163 4.73396E+01-5.30619E+01-1.39877E+01 4.75613E+00 3.26113E+00-1.48522E+01
 -1       164 7.37674E+01-3.58714E+01-2.61158E+01 1.85107E+00 4.56709E+00-1.52112E+01
 -1       165 5.82761E+01-4.87011E+01-1.82384E+01-3.48119E+00-2.35850E-01-7.10176E+00
 -1       166 9.27748E+01-8.94960E+00-2.51754E+00-6.61466E+00 2.08367E+00-2.57665E+01
 -1       167 1.10402E+02-8.22553E+00 6.88800E+00-8.34592E+00-1.42312E+00-2.19395E+01
 -1       168 9.63548E+01-1.68915E+00 5.12901E+00-9.45752E+00 1.35678E+00-2.23574E+01
 -1       169 6.53864E+01-1.44913E+01-7.03872E+00-5.68647E+00 5.05142E-01-5.99999E+00
 -1       170 6.71189E+01 5.86162E+00 2.83355E+01-4.32933E-01-1.81680E+00 3.00524E+01
 -1       171 7.69872E+01-1.25846E+01 8.55383E+00 6.41381E+00 4.79416E+00 1.30701E+01
 -1       172 6.62555E+01-1.00036E+01-2.02394E+01-1.36272E+01-5.31357E+00 2.52019E+01
 -1       173 6.15299E+01 5.64239E+00 3.81660E+00 6.72774E+00-8.13172E-01 1.18980E+01
 -1       174 6.81339E+01 3.94729E+00-9.01421E-01-3.75969E+00 5.83826E-01 5.28879E+00
 -1       175 1.00973E+02 2.24557E+00-3.29428E+00 7.35465E+00-2.58158E+00 1.36976E+01
 -1       176 3.68709E+01 2.22664E+00 1.73120E+00 7.58523E+00 1.45612E+00 1.49089E+01
 -1       177 9.09067E+01 7.54966E+00 1.76059E+00-3.16566E+00-1.39646E+00 2.83821E+01
 -1       178 1.04838E+02 2.14956E+00 6.05142E+00 8.78922E-01-5.01086E+00 1.70068E+01
 -1       179 1.04459E+02-5.11844E+00 7.84242E+00 5.03825E+00 2.58939E-01 1.77574E+01
 -1       180 6.24231E+01-9.17400E+00-7.47743E+00 7.37513E+00 1.75828E-01 5.19249E+00
 -1       181 6.68193E+01-4.15905E+00 2.14009E+01 1.29402E+00 1.29877E+00 1.08169E+01
 -1       182 1.12231E+02-3.49268E+00-7.11211E+00-9.10084E-02-1.17867E+00 1.66640E+01
 -1       183 6.62198E+01-2.77818E-01 3.09764E+00-1.39536E+01-9.52806E+00 3.08977E+01
 -1       184 9.72711E+01 3.76128E+00 6.57651E+00-1.28339E+00 1.72336E+00 2.45003E+01
 -1       185 4.86305E+01-9.93334E+00-8.92006E+00-5.87281E+00-4.55659E+00 1.21378E+01
 -1       186 3.77952E+01-3.90675E+01-1.18521E+01-1.42515E+01 2.80057E+00 1.84993E+01
 -1       187 4.96494E+01-2.56122E+01 1.67824E+01 1.77220E+00-3.40491E-01 2.10055E+01
 -1       188 3.64643E+01 4.62956E+00 1.32753E+00-1.79380E+00-1.85215E+00 1.52471E+01
 -1       189 6.37744E+01 6.37152E+00 2.26770E-01-5.04048E+00 1.07842E-01 2.66053E+01
 -1       190 1.02707E+02 2.24588E+00-4.38459E+00-5.55312E+00 2.37170E+00 9.53112E+00
 -1       191 8.80499E+01 5.45629E+00 3.78946E+00 2.36734E+00-6.63909E-01 7.72160E+00
 -1       192 3.97944E+01 1.99105E+00-8.32110E-01-6.82196E+00-1.26383E+00 1.33296E+01
 -1       193 3.85656E+01 1.69593E+00-2.78206E+00 2.70350E-01 1.37911E+00 1.34275E+01
 -1       194 4.88211E+01-3.92163E+01-3.92058E+00 5.76228E+00 1.96012E+00 8.11529E+00
 -1       195-6.40648E+01 7.66578E+00 3.41356E+01 6.57163E+00 5.21688E-01 2.02018E+01
 -1       196-7.65729E+01-8.78004E+00-4.47602E+01-1.78555E+00 5.70390E+00-2.15781E+01
 -1       197 2.75709E+00 1.50898E+00 1.78749E+01-4.33042E+00 1.96228E-01-2.71999E+01
 -1       198-2.88118E+01 2.19774E+00 2.24629E+01-4.25217E+00-4.16034E-01-1.76483E+01
 -1       199-2.59675E+01-4.94224E-01-1.12176E+00-6.95780E+00 3.56398E+00-3.26920E+01
 -1       200-6.31512E+01-3.03956E+00-2.22089E+01-3.95114E+00 1.85702E+00-9.47871E+00
 -1       201-3.23111E+01 1.56315E+00 5.93025E+00-3.30609E+00 4.73985E+00-2.62272E+01
 -1       202 4.20813E+01-9.16714E+00-2.71276E+01 7.01928E+00 4.53786E-01-2.34930E+01
 -1       203 3.50236E+01-1.37866E+01-3.17997E+01 6.55679E+00-2.47968E+00-2.16380E+01
 -1       204-5.33106E+01-1.22291E+01-5.44672E+01 6.31038E+00 7.62947E-01-1.95254E+01
 -1       205-9.67183E+00-1.79082E+01-2.29642E+01 4.06598E+00 2.78576E+00-1.62727E+01
 -1       206-7.35758E+00-5.22349E+00-1.02262E+01 3.28247E-01 1.16175E+00-3.08986E+01
 -1       207-2.17868E+01-3.46200E+01-2.08880E+02 3.95948E+00 5.53154E+00-2.68769E+01
 -1       208-5.98611E+00-2.14521E+01-1.55755E+02 1.54534E+00 5.40029E+00-1.80919E+01
 -1       209 3.04079E+01-1.93330E+01-6.58012E+01 5.92475E+00 8.26766E-01 2.29630E+01
 -1       210 2.97329E+01-2.86002E+01-8.95407E+01 5.30825E+00-2.16095E-01 1.33702E+01
 -1       211 2.86376E+00-3.83457E+01-1.71341E+02-5.71685E+00 4.33114E+00 1.76498E+01
 -1       212 2.15949E+01-2.71225E+01-1.10113E+02-7.04522E+00 1.67749E+00 1.49358E+01
 -1       213 2.98913E+01 4.60993E+00 1.39846E+01-2.19219E+00 3.14074E-01 3.47252E+01
 -1       214 3.05937E+01 3.06892E+00 9.86398E+00-2.82951E+00 1.24126E-01 2.00148E+01
 -1       215 3.13826E+01 1.59149E+00-1.39407E-01-5.03640E+00-1.03332E+00-1.67540E+01
 -1       216 2.88477E+01 2.31339E+00 1.07952E+01-4.50314E+00 9.91271E-01-2.23918E+01
 -1       217-2.67245E+01-3.18835E+01-1.93848E+02 2.93027E+00-4.53524E+00 2.29188E+01
 -1       218-2.82776E+00-2.10111E+01-1.48029E+02 5.93436E-01-5.70280E+00 2.46372E+01
 -1       219-5.01412E+01-2.47643E+01-1.35125E+02 4.23020E+00-1.74127E+00-1.53453E+00
 -1       220-8.52880E+01-2.90104E+00-6.44542E+00 2.76693E+00-2.99873E-01-1.74184E+01
 -1       221-6.38383E+01-3.61952E+01-1.86591E+02-1.02184E+00 7.03502E+00-6.93995E+00
 -1       222-1.35663E+00-2.55368E+01-1.21552E+02 2.24908E+00-1.46360E+00 2.35185E+01
 -1       223-2.29859E+01-9.18284E+00-6.13356E+01-3.25637E+00-9.78222E-01 1.60576E+01
 -1       224-3.44397E+01 3.44164E-01-1.82655E+01-1.20784E+00-1.12981E+00 1.34064E+01
 -1       225-1.45066E+01 2.22718E+00 3.90360E+00-6.78827E+00-8.23100E-01 2.66841E+01
 -1       226-3.28833E+01 3.61763E+00 3.30165E+01-4.29758E+00 3.92874E-01 2.28555E+01
 -1       227-5.67235E+01 1.96556E+00 1.77655E+01-4.53391E+00-1.71125E+00 1.58912E+01
 -1       228 3.92696E-01 5.49706E+00 2.26700E+01 1.57816E+00-5.59336E-01 3.04615E+01
 -1       229-1.52214E+00 4.37612E+00 1.27810E+01-4.91193E+00-1.58522E-01-1.96167E+01
 -1       230-5.44857E+01 1.98624E+00 1.05520E+01 6.77242E-01 2.76963E+00-1.27956E+01
 -1       231-2.98809E+01 1.95220E+00-1.91597E+01 7.16818E+00 4.99704E+00 3.16099E+01
 -1       232-5.65448E+01-2.05538E+01-1.06576E+02-1.12608E+00-3.19665E+00 2.05464E+01
 -1       233-6.63098E+01 5.88241E+00 2.40107E+01 5.69054E+00-9.77552E-01 6.21405E+00
 -1       234-4.63125E+01 2.49572E+00 2.71881E+01-3.44872E+00-1.70377E+00-7.14546E-01
 -1       235-4.27669E+00-1.03305E+00 4.42294E+00 3.59512E+00-4.00573E-01-2.62193E+01
 -1       236-2.05694E+01 2.52644E+00 1.25752E+01 1.88595E+00-2.68286E+00-1.94855E+01
 -1       237-4.84322E+01 5.96233E+00 2.94362E+01 3.57348E+00 2.94483E+00 8.59028E+00
 -1       238-6.91400E+01-7.26397E-01-7.46024E+00 3.42635E+00 5.04767E+00-4.28167E-01
 -1       239 2.41027E+01-3.47612E+01-9.76490E+01-7.16124E+00-1.22670E+00-8.85540E+00
 -1       240-1.21239E+01-4.26188E+01-6.09400E+01-4.85267E+00 4.84967E+00-1.73107E+01
 -1       241-3.37424E+01-3.07333E+01-1.44517E+02-7.15453E+00 5.42200E+00-2.62104E+01
 -1       242 8.42035E+00-1.38070E+01-3.37312E+01-9.46212E+00 4.31781E-01-2.41178E+01
 -1       243-5.00726E+00-2.06199E+01-1.65174E+02-3.82986E-01-8.66079E-01-2.45639E+01
 -1       244-3.88868E+01-1.24638E+01-1.93953E+02-3.21169E+00 1.20137E+00-9.16010E+00
 -1       245-3.51219E+01-7.22411E+00-6.53533E+01-4.71450E+00 1.71628E+00-3.49462E+01
 -1       246 4.47836E+01-9.71659E+00-4.62533E+01-5.63972E+00 7.02194E-01-2.18511E+01
 -1       247 2.25451E+01-3.94289E+00-1.67154E+01-6.46909E+00 1.45524E+00-2.88691E+01
 -1       248 3.29216E+01 2.63907E+00 1.27460E+01 3.24800E+00-1.86759E-01 2.25497E+01
 -1       249-3.14890E+01 4.84451E+00 3.16287E+01 5.82366E+00-1.07698E+00 3.17566E+01
 -1       250-2.37971E+00 7.56915E+00 1.84087E+01 1.09580E+01-9.84889E-01 2.56329E+01
 -1       251 1.86717E+01 3.97601E+00 1.17792E+01 6.73930E+00-8.89707E-01 2.92779E+01
 -1       252 6.31235E+00 6.98358E-01 1.24891E+01 3.23487E+00-6.34729E-01 2.66241E+01
 -1       253-3.79040E+01 4.09117E+00 2.67683E+01 6.12544E+00 2.88753E-01 5.88092E+00
 -1       254-2.38482E+01 4.50952E+00 2.25378E+01 7.23871E+00-4.21029E-01 2.63626E+01
 -1       255 3.18156E+01 1.98191E+00 4.21274E+00 5.56836E+00-6.85253E-01 1.75122E+01
 -1       256-1.30120E+01 6.62040E+00 1.81464E+01 2.47206E+00-8.55974E-01 2.77010E+01
 -1       257-3.30248E+01 4.25362E+00 2.68000E+01 4.21465E+00-7.14394E-01-1.60948E+01
 -1       258-4.87470E+01-5.19863E+00-8.41908E+01 2.58170E+00 1.50436E+00 1.40269E+01
 -1       259-3.23419E+01 4.00848E+00 2.65532E+01-4.81138E-01-2.47474E-01 2.02966E+01
 -1       260 3.89045E+00 3.00401E-01 1.34760E+01 3.68617E+00 1.43117E-01-2.39978E+01
 -1       261 3.16864E+01 1.78242E+00 3.98466E+00 1.52523E+00 1.43370E+00-2.36299E+01
 -1       262 2.44645E+01-3.45290E+01-9.75586E+01 7.50456E+00 1.11288E+00-1.25643E+01
 -1       263 3.41113E+01-5.54912E+00-5.67028E+01-6.91246E+00-2.45260E+00 2.26898E+01
 -1       264 3.05130E+01 2.11398E+00 2.76769E-01-6.02023E+00 1.53151E+00 1.95242E+01
 -1       265 3.15703E+01 1.93680E+00 1.12383E+01-2.26383E+00 2.14285E+00-2.04461E+01
 -1       266-9.90598E-01 1.40316E+00 1.53241E+01-5.53851E+00 1.40758E+00 2.53307E+01
 -1       267 4.35928E+01-7.71217E+00-3.96173E+01 5.10976E+00 3.37190E+00 2.39637E+01
 -1       268 2.28989E+01 2.55762E+00 1.57055E+01 2.92480E+00 9.29791E-02-2.64940E+01
 -1       269-5.31491E+00-1.78909E+01-1.64400E+02 1.19164E+00 4.52619E+00 1.76429E+01
 -1       270 2.79647E+00-4.18439E+01-1.74307E+02 7.34717E+00 1.10355E+00-2.06052E+01
 -1       271-6.23004E+00 4.36993E+00 1.15291E+01 4.63791E+00 3.22888E+00-1.97082E+01
 -1       272-1.95691E+01 5.34315E+00 1.95081E+01 7.76704E+00-1.17540E+00-1.63061E+01
 -1       273 2.89697E+01 1.46878E+00 1.66287E+01-3.78765E+00 4.36733E+00-2.81730E+01
 -1       274-1.88856E+00-5.42228E+00-3.12999E+01-7.91845E+00-8.49974E-01 2.59412E+01
 -1       275-3.22820E+01-3.44169E+01-2.06991E+02-9.70192E-01 1.96317E+00 2.30923E+01
 -1       276-1.98626E+01 2.43083E+00 1.90669E+01-3.39291E+00 1.36046E+00 1.21794E+01
 -1       277 3.32550E+01-1.59557E+00-1.53980E+01 6.96913E+00 3.32331E+00 2.76929E+01
 -1       278-1.42792E+00 2.85544E+00 1.26896E+01 5.64447E+00-4.79508E-01-2.34539E+01
 -1       279 3.91809E+01 3.97573E+00 7.41993E+00-5.41442E+00-2.98377E-01 3.06348E+01
 -1       280-1.97867E+01 1.28829E+00 1.89224E+01 4.51201E+00 6.46177E-01-1.37446E+01
 -3
 9999
