    1C
    1UUSER                                                              
    1UDATE              07.february.2018                                
    1UTIME              13:19:11                                        
    1UHOST                                                              
    1UPGM               CalculiX                                        
    1UVERSION           Version 2.11                             
    1UCOMPILETIME       So 31. Jul 13:26:31 CEST 2016                    
    1UDIR                                                               
    1UDBN                                                               
    1UMAT    1MECHANICALMATERIAL                                        
    2C                           280                                     1
 -1         1 0.00000E+00 0.00000E+00 0.00000E+00
 -1         2 0.00000E+00 0.00000E+00 1.00000E+01
 -1         3 0.00000E+00 1.00000E+01 0.00000E+00
 -1         4 0.00000E+00 1.00000E+01 1.00000E+01
 -1         5 1.00000E+01 0.00000E+00 0.00000E+00
 -1         6 1.00000E+01 0.00000E+00 1.00000E+01
 -1         7 1.00000E+01 1.00000E+01 0.00000E+00
 -1         8 1.00000E+01 1.00000E+01 1.00000E+01
 -1         9 0.00000E+00 0.00000E+00 5.00000E+00
 -1        10 0.00000E+00 0.00000E+00 2.50000E+00
 -1        11 0.00000E+00 0.00000E+00 7.50000E+00
 -1        12 0.00000E+00 5.00000E+00 0.00000E+00
 -1        13 0.00000E+00 2.50000E+00 0.00000E+00
 -1        14 0.00000E+00 7.50000E+00 0.00000E+00
 -1        15 0.00000E+00 1.00000E+01 5.00000E+00
 -1        16 0.00000E+00 1.00000E+01 2.50000E+00
 -1        17 0.00000E+00 1.00000E+01 7.50000E+00
 -1        18 0.00000E+00 5.00000E+00 1.00000E+01
 -1        19 0.00000E+00 2.50000E+00 1.00000E+01
 -1        20 0.00000E+00 7.50000E+00 1.00000E+01
 -1        21 1.00000E+01 0.00000E+00 5.00000E+00
 -1        22 1.00000E+01 0.00000E+00 2.50000E+00
 -1        23 1.00000E+01 0.00000E+00 7.50000E+00
 -1        24 1.00000E+01 5.00000E+00 0.00000E+00
 -1        25 1.00000E+01 2.50000E+00 0.00000E+00
 -1        26 1.00000E+01 7.50000E+00 0.00000E+00
 -1        27 1.00000E+01 1.00000E+01 5.00000E+00
 -1        28 1.00000E+01 1.00000E+01 2.50000E+00
 -1        29 1.00000E+01 1.00000E+01 7.50000E+00
 -1        30 1.00000E+01 5.00000E+00 1.00000E+01
 -1        31 1.00000E+01 2.50000E+00 1.00000E+01
 -1        32 1.00000E+01 7.50000E+00 1.00000E+01
 -1        33 5.00000E+00 0.00000E+00 0.00000E+00
 -1        34 2.50000E+00 0.00000E+00 0.00000E+00
 -1        35 7.50000E+00 0.00000E+00 0.00000E+00
 -1        36 5.00000E+00 0.00000E+00 1.00000E+01
 -1        37 2.50000E+00 0.00000E+00 1.00000E+01
 -1        38 7.50000E+00 0.00000E+00 1.00000E+01
 -1        39 5.00000E+00 1.00000E+01 0.00000E+00
 -1        40 2.50000E+00 1.00000E+01 0.00000E+00
 -1        41 7.50000E+00 1.00000E+01 0.00000E+00
 -1        42 5.00000E+00 1.00000E+01 1.00000E+01
 -1        43 2.50000E+00 1.00000E+01 1.00000E+01
 -1        44 7.50000E+00 1.00000E+01 1.00000E+01
 -1        45 0.00000E+00 5.00000E+00 5.00000E+00
 -1        46 0.00000E+00 2.50000E+00 7.50000E+00
 -1        47 0.00000E+00 2.50000E+00 2.50000E+00
 -1        48 0.00000E+00 7.50000E+00 7.50000E+00
 -1        49 0.00000E+00 7.50000E+00 2.50000E+00
 -1        50 0.00000E+00 1.25000E+00 8.75000E+00
 -1        51 0.00000E+00 1.25000E+00 6.25000E+00
 -1        52 0.00000E+00 2.50000E+00 5.00000E+00
 -1        53 0.00000E+00 3.75000E+00 6.25000E+00
 -1        54 0.00000E+00 1.25000E+00 3.75000E+00
 -1        55 0.00000E+00 1.25000E+00 1.25000E+00
 -1        56 0.00000E+00 3.75000E+00 3.75000E+00
 -1        57 0.00000E+00 3.75000E+00 1.25000E+00
 -1        58 0.00000E+00 5.00000E+00 2.50000E+00
 -1        59 0.00000E+00 6.25000E+00 1.25000E+00
 -1        60 0.00000E+00 8.75000E+00 1.25000E+00
 -1        61 0.00000E+00 6.25000E+00 3.75000E+00
 -1        62 0.00000E+00 3.75000E+00 8.75000E+00
 -1        63 0.00000E+00 5.00000E+00 7.50000E+00
 -1        64 0.00000E+00 8.75000E+00 6.25000E+00
 -1        65 0.00000E+00 8.75000E+00 8.75000E+00
 -1        66 0.00000E+00 6.25000E+00 6.25000E+00
 -1        67 0.00000E+00 7.50000E+00 5.00000E+00
 -1        68 0.00000E+00 6.25000E+00 8.75000E+00
 -1        69 0.00000E+00 8.75000E+00 3.75000E+00
 -1        70 1.00000E+01 5.00000E+00 5.00000E+00
 -1        71 1.00000E+01 2.50000E+00 7.50000E+00
 -1        72 1.00000E+01 7.50000E+00 7.50000E+00
 -1        73 1.00000E+01 7.50000E+00 2.50000E+00
 -1        74 1.00000E+01 2.50000E+00 2.50000E+00
 -1        75 1.00000E+01 6.25000E+00 8.75000E+00
 -1        76 1.00000E+01 8.75000E+00 8.75000E+00
 -1        77 1.00000E+01 8.75000E+00 6.25000E+00
 -1        78 1.00000E+01 5.00000E+00 7.50000E+00
 -1        79 1.00000E+01 6.25000E+00 6.25000E+00
 -1        80 1.00000E+01 7.50000E+00 5.00000E+00
 -1        81 1.00000E+01 6.25000E+00 1.25000E+00
 -1        82 1.00000E+01 8.75000E+00 1.25000E+00
 -1        83 1.00000E+01 8.75000E+00 3.75000E+00
 -1        84 1.00000E+01 6.25000E+00 3.75000E+00
 -1        85 1.00000E+01 5.00000E+00 2.50000E+00
 -1        86 1.00000E+01 3.75000E+00 1.25000E+00
 -1        87 1.00000E+01 1.25000E+00 1.25000E+00
 -1        88 1.00000E+01 1.25000E+00 3.75000E+00
 -1        89 1.00000E+01 3.75000E+00 3.75000E+00
 -1        90 1.00000E+01 2.50000E+00 5.00000E+00
 -1        91 1.00000E+01 3.75000E+00 8.75000E+00
 -1        92 1.00000E+01 1.25000E+00 8.75000E+00
 -1        93 1.00000E+01 3.75000E+00 6.25000E+00
 -1        94 1.00000E+01 1.25000E+00 6.25000E+00
 -1        95 5.00000E+00 0.00000E+00 5.00000E+00
 -1        96 7.50000E+00 0.00000E+00 7.50000E+00
 -1        97 7.50000E+00 0.00000E+00 2.50000E+00
 -1        98 2.50000E+00 0.00000E+00 2.50000E+00
 -1        99 2.50000E+00 0.00000E+00 7.50000E+00
 -1       100 1.25000E+00 0.00000E+00 1.25000E+00
 -1       101 1.25000E+00 0.00000E+00 3.75000E+00
 -1       102 2.50000E+00 0.00000E+00 5.00000E+00
 -1       103 3.75000E+00 0.00000E+00 3.75000E+00
 -1       104 3.75000E+00 0.00000E+00 6.25000E+00
 -1       105 1.25000E+00 0.00000E+00 6.25000E+00
 -1       106 1.25000E+00 0.00000E+00 8.75000E+00
 -1       107 6.25000E+00 0.00000E+00 6.25000E+00
 -1       108 6.25000E+00 0.00000E+00 8.75000E+00
 -1       109 5.00000E+00 0.00000E+00 7.50000E+00
 -1       110 7.50000E+00 0.00000E+00 5.00000E+00
 -1       111 8.75000E+00 0.00000E+00 6.25000E+00
 -1       112 8.75000E+00 0.00000E+00 8.75000E+00
 -1       113 6.25000E+00 0.00000E+00 3.75000E+00
 -1       114 8.75000E+00 0.00000E+00 3.75000E+00
 -1       115 5.00000E+00 0.00000E+00 2.50000E+00
 -1       116 6.25000E+00 0.00000E+00 1.25000E+00
 -1       117 8.75000E+00 0.00000E+00 1.25000E+00
 -1       118 3.75000E+00 0.00000E+00 1.25000E+00
 -1       119 3.75000E+00 0.00000E+00 8.75000E+00
 -1       120 5.00000E+00 1.00000E+01 5.00000E+00
 -1       121 7.50000E+00 1.00000E+01 2.50000E+00
 -1       122 2.50000E+00 1.00000E+01 2.50000E+00
 -1       123 7.50000E+00 1.00000E+01 7.50000E+00
 -1       124 2.50000E+00 1.00000E+01 7.50000E+00
 -1       125 6.25000E+00 1.00000E+01 8.75000E+00
 -1       126 6.25000E+00 1.00000E+01 6.25000E+00
 -1       127 5.00000E+00 1.00000E+01 7.50000E+00
 -1       128 8.75000E+00 1.00000E+01 8.75000E+00
 -1       129 3.75000E+00 1.00000E+01 8.75000E+00
 -1       130 3.75000E+00 1.00000E+01 6.25000E+00
 -1       131 1.25000E+00 1.00000E+01 8.75000E+00
 -1       132 6.25000E+00 1.00000E+01 1.25000E+00
 -1       133 5.00000E+00 1.00000E+01 2.50000E+00
 -1       134 6.25000E+00 1.00000E+01 3.75000E+00
 -1       135 8.75000E+00 1.00000E+01 1.25000E+00
 -1       136 8.75000E+00 1.00000E+01 3.75000E+00
 -1       137 7.50000E+00 1.00000E+01 5.00000E+00
 -1       138 1.25000E+00 1.00000E+01 3.75000E+00
 -1       139 2.50000E+00 1.00000E+01 5.00000E+00
 -1       140 3.75000E+00 1.00000E+01 3.75000E+00
 -1       141 1.25000E+00 1.00000E+01 1.25000E+00
 -1       142 3.75000E+00 1.00000E+01 1.25000E+00
 -1       143 8.75000E+00 1.00000E+01 6.25000E+00
 -1       144 1.25000E+00 1.00000E+01 6.25000E+00
 -1       145 5.00000E+00 5.00000E+00 0.00000E+00
 -1       146 2.50000E+00 7.50000E+00 0.00000E+00
 -1       147 7.50000E+00 7.50000E+00 0.00000E+00
 -1       148 7.50000E+00 2.50000E+00 0.00000E+00
 -1       149 2.50000E+00 2.50000E+00 0.00000E+00
 -1       150 1.25000E+00 3.75000E+00 0.00000E+00
 -1       151 1.25000E+00 1.25000E+00 0.00000E+00
 -1       152 2.50000E+00 5.00000E+00 0.00000E+00
 -1       153 1.25000E+00 6.25000E+00 0.00000E+00
 -1       154 3.75000E+00 6.25000E+00 0.00000E+00
 -1       155 3.75000E+00 3.75000E+00 0.00000E+00
 -1       156 1.25000E+00 8.75000E+00 0.00000E+00
 -1       157 3.75000E+00 1.25000E+00 0.00000E+00
 -1       158 3.75000E+00 8.75000E+00 0.00000E+00
 -1       159 5.00000E+00 7.50000E+00 0.00000E+00
 -1       160 6.25000E+00 8.75000E+00 0.00000E+00
 -1       161 6.25000E+00 6.25000E+00 0.00000E+00
 -1       162 8.75000E+00 8.75000E+00 0.00000E+00
 -1       163 8.75000E+00 6.25000E+00 0.00000E+00
 -1       164 7.50000E+00 5.00000E+00 0.00000E+00
 -1       165 8.75000E+00 3.75000E+00 0.00000E+00
 -1       166 6.25000E+00 3.75000E+00 0.00000E+00
 -1       167 6.25000E+00 1.25000E+00 0.00000E+00
 -1       168 5.00000E+00 2.50000E+00 0.00000E+00
 -1       169 8.75000E+00 1.25000E+00 0.00000E+00
 -1       170 5.00000E+00 5.00000E+00 1.00000E+01
 -1       171 7.50000E+00 7.50000E+00 1.00000E+01
 -1       172 7.50000E+00 2.50000E+00 1.00000E+01
 -1       173 2.50000E+00 7.50000E+00 1.00000E+01
 -1       174 2.50000E+00 2.50000E+00 1.00000E+01
 -1       175 3.75000E+00 8.75000E+00 1.00000E+01
 -1       176 1.25000E+00 8.75000E+00 1.00000E+01
 -1       177 3.75000E+00 6.25000E+00 1.00000E+01
 -1       178 5.00000E+00 7.50000E+00 1.00000E+01
 -1       179 6.25000E+00 8.75000E+00 1.00000E+01
 -1       180 8.75000E+00 8.75000E+00 1.00000E+01
 -1       181 6.25000E+00 6.25000E+00 1.00000E+01
 -1       182 6.25000E+00 1.25000E+00 1.00000E+01
 -1       183 6.25000E+00 3.75000E+00 1.00000E+01
 -1       184 5.00000E+00 2.50000E+00 1.00000E+01
 -1       185 8.75000E+00 1.25000E+00 1.00000E+01
 -1       186 8.75000E+00 3.75000E+00 1.00000E+01
 -1       187 7.50000E+00 5.00000E+00 1.00000E+01
 -1       188 1.25000E+00 6.25000E+00 1.00000E+01
 -1       189 2.50000E+00 5.00000E+00 1.00000E+01
 -1       190 3.75000E+00 1.25000E+00 1.00000E+01
 -1       191 3.75000E+00 3.75000E+00 1.00000E+01
 -1       192 1.25000E+00 1.25000E+00 1.00000E+01
 -1       193 1.25000E+00 3.75000E+00 1.00000E+01
 -1       194 8.75000E+00 6.25000E+00 1.00000E+01
 -1       195 3.75000E+00 6.25000E+00 6.25000E+00
 -1       196 6.25000E+00 3.75000E+00 3.75000E+00
 -1       197 1.25000E+00 1.25000E+00 2.50000E+00
 -1       198 2.50000E+00 1.25000E+00 3.75000E+00
 -1       199 4.37500E+00 1.87500E+00 3.12500E+00
 -1       200 5.62500E+00 1.87500E+00 4.37500E+00
 -1       201 3.12500E+00 3.12500E+00 3.12500E+00
 -1       202 6.25000E+00 7.50000E+00 1.25000E+00
 -1       203 7.50000E+00 8.75000E+00 1.25000E+00
 -1       204 6.87500E+00 6.87500E+00 3.12500E+00
 -1       205 6.87500E+00 5.62500E+00 1.87500E+00
 -1       206 5.62500E+00 4.37500E+00 1.87500E+00
 -1       207 8.75000E+00 7.50000E+00 3.75000E+00
 -1       208 8.75000E+00 8.75000E+00 2.50000E+00
 -1       209 7.50000E+00 6.25000E+00 8.75000E+00
 -1       210 8.75000E+00 7.50000E+00 8.75000E+00
 -1       211 8.75000E+00 3.75000E+00 7.50000E+00
 -1       212 8.75000E+00 2.50000E+00 8.75000E+00
 -1       213 3.75000E+00 2.50000E+00 8.75000E+00
 -1       214 2.50000E+00 1.25000E+00 8.75000E+00
 -1       215 1.25000E+00 2.50000E+00 1.25000E+00
 -1       216 2.50000E+00 3.75000E+00 1.25000E+00
 -1       217 8.75000E+00 7.50000E+00 6.25000E+00
 -1       218 8.75000E+00 8.75000E+00 7.50000E+00
 -1       219 7.50000E+00 7.50000E+00 5.00000E+00
 -1       220 5.62500E+00 6.87500E+00 4.37500E+00
 -1       221 8.12500E+00 4.37500E+00 4.37500E+00
 -1       222 7.50000E+00 5.00000E+00 7.50000E+00
 -1       223 6.87500E+00 3.12500E+00 6.87500E+00
 -1       224 5.62500E+00 4.37500E+00 6.87500E+00
 -1       225 5.00000E+00 2.50000E+00 7.50000E+00
 -1       226 3.12500E+00 3.12500E+00 6.87500E+00
 -1       227 4.37500E+00 3.12500E+00 5.62500E+00
 -1       228 4.37500E+00 5.62500E+00 8.12500E+00
 -1       229 2.50000E+00 5.00000E+00 2.50000E+00
 -1       230 3.12500E+00 4.37500E+00 4.37500E+00
 -1       231 5.62500E+00 8.12500E+00 6.87500E+00
 -1       232 6.87500E+00 5.62500E+00 5.62500E+00
 -1       233 4.37500E+00 8.12500E+00 5.62500E+00
 -1       234 2.50000E+00 2.50000E+00 5.00000E+00
 -1       235 5.00000E+00 7.50000E+00 2.50000E+00
 -1       236 4.37500E+00 5.62500E+00 3.12500E+00
 -1       237 1.87500E+00 5.62500E+00 5.62500E+00
 -1       238 5.00000E+00 5.00000E+00 5.00000E+00
 -1       239 8.75000E+00 2.50000E+00 1.25000E+00
 -1       240 8.12500E+00 4.37500E+00 1.87500E+00
 -1       241 8.12500E+00 3.12500E+00 3.12500E+00
 -1       242 6.87500E+00 3.12500E+00 1.87500E+00
 -1       243 8.75000E+00 1.25000E+00 2.50000E+00
 -1       244 8.12500E+00 1.87500E+00 4.37500E+00
 -1       245 6.87500E+00 1.87500E+00 3.12500E+00
 -1       246 7.50000E+00 1.25000E+00 1.25000E+00
 -1       247 5.62500E+00 1.87500E+00 1.87500E+00
 -1       248 2.50000E+00 8.75000E+00 8.75000E+00
 -1       249 3.12500E+00 8.12500E+00 6.87500E+00
 -1       250 3.12500E+00 6.87500E+00 8.12500E+00
 -1       251 4.37500E+00 8.12500E+00 8.12500E+00
 -1       252 1.25000E+00 8.75000E+00 7.50000E+00
 -1       253 1.87500E+00 8.12500E+00 5.62500E+00
 -1       254 1.87500E+00 6.87500E+00 6.87500E+00
 -1       255 1.25000E+00 7.50000E+00 8.75000E+00
 -1       256 1.87500E+00 5.62500E+00 8.12500E+00
 -1       257 3.12500E+00 8.12500E+00 4.37500E+00
 -1       258 6.87500E+00 1.87500E+00 5.62500E+00
 -1       259 1.87500E+00 4.37500E+00 6.87500E+00
 -1       260 1.25000E+00 8.75000E+00 2.50000E+00
 -1       261 1.25000E+00 7.50000E+00 1.25000E+00
 -1       262 8.75000E+00 7.50000E+00 1.25000E+00
 -1       263 7.50000E+00 1.25000E+00 8.75000E+00
 -1       264 1.25000E+00 2.50000E+00 8.75000E+00
 -1       265 2.50000E+00 1.25000E+00 1.25000E+00
 -1       266 1.25000E+00 1.25000E+00 7.50000E+00
 -1       267 7.50000E+00 8.75000E+00 8.75000E+00
 -1       268 2.50000E+00 8.75000E+00 1.25000E+00
 -1       269 8.75000E+00 1.25000E+00 7.50000E+00
 -1       270 8.75000E+00 6.25000E+00 2.50000E+00
 -1       271 1.25000E+00 6.25000E+00 2.50000E+00
 -1       272 3.12500E+00 6.87500E+00 3.12500E+00
 -1       273 3.75000E+00 2.50000E+00 1.25000E+00
 -1       274 6.25000E+00 1.25000E+00 7.50000E+00
 -1       275 8.75000E+00 2.50000E+00 6.25000E+00
 -1       276 1.25000E+00 2.50000E+00 6.25000E+00
 -1       277 6.25000E+00 7.50000E+00 8.75000E+00
 -1       278 3.75000E+00 8.75000E+00 2.50000E+00
 -1       279 2.50000E+00 3.75000E+00 8.75000E+00
 -1       280 1.25000E+00 7.50000E+00 3.75000E+00
 -3
    3C                           129                                     1
 -1         1    6    0    1
 -2        95        98        47       196       103       197       198       200       199       201
 -1         2    6    0    1
 -2       147       121       145       196       203       202       161       205       204       206
 -1         3    6    0    1
 -2        73        70        27       121        84        80        83       208       207       136
 -1         4    6    0    1
 -2        72       170        30       171       209       187        75       210       181       194
 -1         5    6    0    1
 -2         9        98        47        95       101       197        54       102       103       198
 -1         6    6    0    1
 -2       172        70        30        71       211        78       186       212        93        91
 -1         7    6    0    1
 -2       170        99        36       174       213       119       184       191       214       190
 -1         8    6    0    1
 -2        12        47       149       145        57       215       150       152       216       155
 -1         9    6    0    1
 -2        70        27       123        72        80       143       217        79        77       218
 -1        10    6    0    1
 -2        39       147       121       145       160       203       132       159       161       202
 -1        11    6    0    1
 -2        70       120       121       196       219       134       207       221       220       204
 -1        12    6    0    1
 -2        70       172       170       196       211       183       222       221       223       224
 -1        13    6    0    1
 -2        95        99       170       195       104       213       225       227       226       228
 -1        14    6    0    1
 -2       145        45        47       196       229        56       216       206       230       201
 -1        15    6    0    1
 -2        70       123       120       195       217       126       219       232       231       233
 -1        16    6    0    1
 -2        47        45        95       196        56       234       198       201       230       200
 -1        17    6    0    1
 -2       121       120       145       196       134       235       202       204       220       206
 -1        18    6    0    1
 -2       145        39       120       121       159       133       235       202       132       134
 -1        19    6    0    1
 -2        70       120        27       121       219       137        80       207       134       136
 -1        20    6    0    1
 -2         9        47        45        95        54        56        52       102       198       234
 -1        21    6    0    1
 -2        70        27       120       123        80       137       219       217       143       126
 -1        22    6    0    1
 -2        45        47        12       145        56        57        58       229       216       152
 -1        23    6    0    1
 -2       170        95        36        99       225       109       184       213       104       119
 -1        24    6    0    1
 -2       195        45       145       196       237       229       236       238       230       206
 -1        25    6    0    1
 -2        95        45       195       196       234       237       227       200       230       238
 -1        26    6    0    1
 -2       170        95       195       196       225       227       228       224       200       238
 -1        27    6    0    1
 -2        70       170       195       196       222       228       232       221       224       238
 -1        28    6    0    1
 -2       195       120        70       196       233       219       232       238       220       221
 -1        29    6    0    1
 -2       145       120       195       196       235       233       236       206       220       238
 -1        30    6    0    1
 -2        74        24       148       196        86       165       239       241       240       242
 -1        31    6    0    1
 -2        21        74        97       196        88       243       114       244       241       245
 -1        32    6    0    1
 -2       148        33        97       196       167       116       246       242       247       245
 -1        33    6    0    1
 -2       173       124        42       195       248       129       175       250       249       251
 -1        34    6    0    1
 -2        48        15       124       195        64       144       252       254       253       249
 -1        35    6    0    1
 -2        18        48       173       195        68       255       188       256       254       250
 -1        36    6    0    1
 -2        74        70        24       196        89        85        86       241       221       240
 -1        37    6    0    1
 -2       170        18       173       195       189       188       177       228       256       250
 -1        38    6    0    1
 -2        70        74        21       196        89        88        90       221       241       244
 -1        39    6    0    1
 -2       120       123        42       195       126       125       127       233       231       251
 -1        40    6    0    1
 -2       170       173        42       195       177       175       178       228       250       251
 -1        41    6    0    1
 -2        42       124       120       195       129       130       127       251       249       233
 -1        42    6    0    1
 -2        15       122       120       195       138       140       139       253       257       233
 -1        43    6    0    1
 -2       124        15       120       195       144       139       130       249       253       233
 -1        44    6    0    1
 -2        15        48        45       195        64        66        67       253       254       237
 -1        45    6    0    1
 -2        24       147       145       196       163       161       164       240       205       206
 -1        46    6    0    1
 -2        95        97        33       196       113       116       115       200       245       247
 -1        47    6    0    1
 -2        33        98        95       196       118       103       115       247       199       200
 -1        48    6    0    1
 -2        95        96        21       196       107       111       110       200       258       244
 -1        49    6    0    1
 -2        97        95        21       196       113       110       114       245       200       244
 -1        50    6    0    1
 -2       145        33       148       196       168       167       166       206       247       242
 -1        51    6    0    1
 -2        24       145       148       196       164       166       165       240       206       242
 -1        52    6    0    1
 -2        18        45        48       195        63        66        68       256       237       254
 -1        53    6    0    1
 -2        45        18        46       195        63        62        53       237       256       259
 -1        54    6    0    1
 -2        48       124       173       195       252       248       255       254       249       250
 -1        55    6    0    1
 -2       148        97        74       196       246       243       239       242       245       241
 -1        56    6    0    1
 -2        74        24         5       148        86        25        87       239       165       169
 -1        57    6    0    1
 -2         3        49       122        15        60       260       141        16        69       138
 -1        58    6    0    1
 -2       146        12        49         3       153        59       261       156        14        60
 -1        59    6    0    1
 -2        15       124         4        48       144       131        17        64       252        65
 -1        60    6    0    1
 -2       149         1        47        12       151        55       215       150        13        57
 -1        61    6    0    1
 -2       147         7        73        24       162        82       262       163        26        81
 -1        62    6    0    1
 -2        36       172         6        96       182       185        38       108       263       112
 -1        63    6    0    1
 -2        98        47         1         9       197        55       100       101        54        10
 -1        64    6    0    1
 -2         2       174        46        18       192       264        50        19       193        62
 -1        65    6    0    1
 -2         1       149        98        33       151       265       100        34       157       118
 -1        66    6    0    1
 -2        48       173         4        18       255       176        65        68       188        20
 -1        67    6    0    1
 -2        30        72       171         8        75       210       194        32        76       180
 -1        68    6    0    1
 -2        97        21         5        74       114        22       117       243        88        87
 -1        69    6    0    1
 -2         9        46         2        99        51        50        11       105       266       106
 -1        70    6    0    1
 -2         8       123       171        42       128       267       180        44       125       179
 -1        71    6    0    1
 -2        97         5        33       148       117        35       116       246       169       167
 -1        72    6    0    1
 -2        99       174         2        36       214       192       106       119       190        37
 -1        73    6    0    1
 -2       173       124         4        42       248       131       176       175       129        43
 -1        74    6    0    1
 -2         3       122       146        39       141       268       156        40       142       158
 -1        75    6    0    1
 -2         8        72       123        27        76       218       128        29        77       143
 -1        76    6    0    1
 -2        71       172         6        30       212       185        92        91       186        31
 -1        77    6    0    1
 -2       147       121         7        39       203       135       162       160       132        41
 -1        78    6    0    1
 -2        73       121        27         7       208       136        83        82       135        28
 -1        79    6    0    1
 -2        71         6        96        21        92       112       269        94        23       111
 -1        80    6    0    1
 -2       146        49       122         3       261       260       268       156        60       141
 -1        81    6    0    1
 -2         2        46       174        99        50       264       192       106       266       214
 -1        82    6    0    1
 -2       123       171        72         8       267       210       218       128       180        76
 -1        83    6    0    1
 -2         7        73       121       147        82       208       135       162       262       203
 -1        84    6    0    1
 -2       173         4       124        48       176       131       248       255        65       252
 -1        85    6    0    1
 -2        96       172         6        71       263       185       112       269       212        92
 -1        86    6    0    1
 -2        74         5        97       148        87       117       243       239       169       246
 -1        87    6    0    1
 -2         1        98       149        47       100       265       151        55       197       215
 -1        88    6    0    1
 -2       147       121        70        73       203       207       270       262       208        84
 -1        89    6    0    1
 -2       121       147        70       196       203       270       207       204       205       221
 -1        90    6    0    1
 -2       147        70        24        73       270        85       163       262        84        81
 -1        91    6    0    1
 -2        70       147        24       196       270       163        85       221       205       240
 -1        92    6    0    1
 -2       146       195        45       145       272       237       271       154       236       229
 -1        93    6    0    1
 -2        12        45       146        49        58       271       153        59        61       261
 -1        94    6    0    1
 -2       146        45        12       145       271        58       153       154       229       152
 -1        95    6    0    1
 -2        98        47       145       149       197       216       273       265       215       155
 -1        96    6    0    1
 -2       145        47        98       196       216       197       273       206       201       199
 -1        97    6    0    1
 -2        33        98       145       149       118       273       168       157       265       155
 -1        98    6    0    1
 -2       145        98        33       196       273       118       168       206       199       247
 -1        99    6    0    1
 -2        95       196       172        96       200       223       274       107       258       263
 -1       100    6    0    1
 -2       172       196        95       170       223       200       274       183       224       225
 -1       101    6    0    1
 -2        36        95       172        96       109       274       182       108       107       263
 -1       102    6    0    1
 -2       172        95        36       170       274       109       182       183       225       184
 -1       103    6    0    1
 -2        96        70       172        71       275       211       263       269        93       212
 -1       104    6    0    1
 -2       172        70        96       196       211       275       263       223       221       258
 -1       105    6    0    1
 -2        96        21        70        71       111        90       275       269        94        93
 -1       106    6    0    1
 -2        70        21        96       196        90       111       275       221       244       258
 -1       107    6    0    1
 -2        45       195        99        95       237       226       276       234       227       104
 -1       108    6    0    1
 -2        99       195        45        46       226       237       276       266       259        53
 -1       109    6    0    1
 -2         9        45        99        95        52       276       105       102       234       104
 -1       110    6    0    1
 -2        99        45         9        46       276        52       105       266        53        51
 -1       111    6    0    1
 -2       123       170        72       171       277       209       218       267       181       210
 -1       112    6    0    1
 -2        42       170       123       171       178       277       125       179       181       267
 -1       113    6    0    1
 -2       170        42       123       195       178       125       277       228       251       231
 -1       114    6    0    1
 -2       170        70       123        72       222       217       277       209        79       218
 -1       115    6    0    1
 -2       123        70       170       195       217       222       277       231       232       228
 -1       116    6    0    1
 -2       120       146       195       122       278       272       233       140       268       257
 -1       117    6    0    1
 -2       146       120       195       145       278       233       272       154       235       236
 -1       118    6    0    1
 -2        39       146       120       122       158       278       133       142       268       140
 -1       119    6    0    1
 -2       146        39       120       145       158       133       278       154       159       235
 -1       120    6    0    1
 -2        46        99       170       174       266       213       279       264       214       191
 -1       121    6    0    1
 -2       170        99        46       195       213       266       279       228       226       259
 -1       122    6    0    1
 -2        18        46       170       174        62       279       189       193       264       191
 -1       123    6    0    1
 -2       170        46        18       195       279        62       189       228       259       256
 -1       124    6    0    1
 -2        70        30       170       172        78       187       222       211       186       183
 -1       125    6    0    1
 -2       170        30        70        72       187        78       222       209        75        79
 -1       126    6    0    1
 -2       122        45       146       195       280       271       268       257       237       272
 -1       127    6    0    1
 -2       146        45       122        49       271       280       268       261        61       260
 -1       128    6    0    1
 -2       122        15        45       195       138        67       280       257       253       237
 -1       129    6    0    1
 -2        45        15       122        49        67       138       280        61        69       260
 -3
    1PSTEP                         1           1           1          
  100CL  101 1.000000000         280                     0    1           1
 -4  DISP        4    1
 -5  D1          1    2    1    0
 -5  D2          1    2    2    0
 -5  D3          1    2    3    0
 -5  ALL         1    2    0    0    1ALL
 -1         1 0.00000E+00 0.00000E+00 0.00000E+00
 -1         2 0.00000E+00 0.00000E+00 0.00000E+00
 -1         3 0.00000E+00 0.00000E+00 0.00000E+00
 -1         4 0.00000E+00 0.00000E+00 0.00000E+00
 -1         5-6.75227E-02-7.58014E-03-6.42607E-02
 -1         6-2.42617E-02-1.09484E-02-5.93725E-02
 -1         7-6.77483E-02 7.76063E-03-6.43181E-02
 -1         8-2.43020E-02 1.10702E-02-5.92736E-02
 -1         9 0.00000E+00 0.00000E+00 0.00000E+00
 -1        10 0.00000E+00 0.00000E+00 0.00000E+00
 -1        11 0.00000E+00 0.00000E+00 0.00000E+00
 -1        12 0.00000E+00 0.00000E+00 0.00000E+00
 -1        13 0.00000E+00 0.00000E+00 0.00000E+00
 -1        14 0.00000E+00 0.00000E+00 0.00000E+00
 -1        15 0.00000E+00 0.00000E+00 0.00000E+00
 -1        16 0.00000E+00 0.00000E+00 0.00000E+00
 -1        17 0.00000E+00 0.00000E+00 0.00000E+00
 -1        18 0.00000E+00 0.00000E+00 0.00000E+00
 -1        19 0.00000E+00 0.00000E+00 0.00000E+00
 -1        20 0.00000E+00 0.00000E+00 0.00000E+00
 -1        21-4.58631E-02-9.17397E-03-5.80348E-02
 -1        22-5.58397E-02-8.18448E-03-6.04450E-02
 -1        23-3.59156E-02-1.02695E-02-5.79862E-02
 -1        24-6.79267E-02 1.63433E-04-6.38587E-02
 -1        25-6.79527E-02-3.93363E-03-6.38966E-02
 -1        26-6.80669E-02 4.11604E-03-6.39143E-02
 -1        27-4.58595E-02 9.40888E-03-5.79584E-02
 -1        28-5.59442E-02 8.40002E-03-6.05048E-02
 -1        29-3.59329E-02 1.04686E-02-5.79033E-02
 -1        30-2.27218E-02 1.12137E-04-5.87708E-02
 -1        31-2.31619E-02-5.53494E-03-5.89413E-02
 -1        32-2.32797E-02 5.67717E-03-5.88366E-02
 -1        33-4.16243E-02-9.29425E-03-3.60935E-02
 -1        34-2.56885E-02-9.48827E-03-1.98077E-02
 -1        35-5.51797E-02-8.28413E-03-5.12565E-02
 -1        36-4.32256E-03-8.08803E-03-3.14306E-02
 -1        37 8.05296E-04-4.75440E-03-1.56980E-02
 -1        38-1.32768E-02-9.91482E-03-4.63617E-02
 -1        39-4.20345E-02 9.31648E-03-3.59254E-02
 -1        40-2.57712E-02 9.47395E-03-1.97500E-02
 -1        41-5.54226E-02 8.40803E-03-5.12266E-02
 -1        42-4.32161E-03 8.40599E-03-3.17721E-02
 -1        43 8.24304E-04 4.86256E-03-1.55496E-02
 -1        44-1.33387E-02 1.00444E-02-4.63896E-02
 -1        45 0.00000E+00 0.00000E+00 0.00000E+00
 -1        46 0.00000E+00 0.00000E+00 0.00000E+00
 -1        47 0.00000E+00 0.00000E+00 0.00000E+00
 -1        48 0.00000E+00 0.00000E+00 0.00000E+00
 -1        49 0.00000E+00 0.00000E+00 0.00000E+00
 -1        50 0.00000E+00 0.00000E+00 0.00000E+00
 -1        51 0.00000E+00 0.00000E+00 0.00000E+00
 -1        52 0.00000E+00 0.00000E+00 0.00000E+00
 -1        53 0.00000E+00 0.00000E+00 0.00000E+00
 -1        54 0.00000E+00 0.00000E+00 0.00000E+00
 -1        55 0.00000E+00 0.00000E+00 0.00000E+00
 -1        56 0.00000E+00 0.00000E+00 0.00000E+00
 -1        57 0.00000E+00 0.00000E+00 0.00000E+00
 -1        58 0.00000E+00 0.00000E+00 0.00000E+00
 -1        59 0.00000E+00 0.00000E+00 0.00000E+00
 -1        60 0.00000E+00 0.00000E+00 0.00000E+00
 -1        61 0.00000E+00 0.00000E+00 0.00000E+00
 -1        62 0.00000E+00 0.00000E+00 0.00000E+00
 -1        63 0.00000E+00 0.00000E+00 0.00000E+00
 -1        64 0.00000E+00 0.00000E+00 0.00000E+00
 -1        65 0.00000E+00 0.00000E+00 0.00000E+00
 -1        66 0.00000E+00 0.00000E+00 0.00000E+00
 -1        67 0.00000E+00 0.00000E+00 0.00000E+00
 -1        68 0.00000E+00 0.00000E+00 0.00000E+00
 -1        69 0.00000E+00 0.00000E+00 0.00000E+00
 -1        70-4.55738E-02-2.75688E-05-5.77937E-02
 -1        71-3.52923E-02-5.14644E-03-5.76439E-02
 -1        72-3.52409E-02 5.33164E-03-5.76526E-02
 -1        73-5.59719E-02 4.39787E-03-6.01607E-02
 -1        74-5.59687E-02-4.22999E-03-6.00896E-02
 -1        75-2.90645E-02 2.82105E-03-5.81115E-02
 -1        76-2.98835E-02 8.15601E-03-5.83233E-02
 -1        77-4.07911E-02 7.53842E-03-5.74345E-02
 -1        78-3.49110E-02 2.16318E-05-5.77096E-02
 -1        79-4.04528E-02 2.58603E-03-5.74794E-02
 -1        80-4.56365E-02 4.79905E-03-5.77029E-02
 -1        81-6.18571E-02 2.21324E-03-6.19662E-02
 -1        82-6.17923E-02 6.16654E-03-6.21392E-02
 -1        83-5.06675E-02 6.78641E-03-5.87390E-02
 -1        84-5.05242E-02 2.32752E-03-5.86628E-02
 -1        85-5.58831E-02 2.88881E-05-6.02305E-02
 -1        86-6.17267E-02-2.00765E-03-6.19461E-02
 -1        87-6.16695E-02-5.97438E-03-6.20831E-02
 -1        88-5.07249E-02-6.58922E-03-5.87050E-02
 -1        89-5.06594E-02-2.23506E-03-5.86626E-02
 -1        90-4.56943E-02-4.70535E-03-5.77227E-02
 -1        91-2.90571E-02-2.65065E-03-5.81700E-02
 -1        92-2.98526E-02-8.01336E-03-5.83856E-02
 -1        93-4.05410E-02-2.46602E-03-5.74144E-02
 -1        94-4.08522E-02-7.30521E-03-5.74638E-02
 -1        95-2.31210E-02-8.99680E-03-2.97057E-02
 -1        96-2.52071E-02-9.48247E-03-4.52402E-02
 -1        97-4.32031E-02-8.70720E-03-4.77830E-02
 -1        98-1.57480E-02-7.82988E-03-1.50129E-02
 -1        99-8.03995E-03-5.68506E-03-1.31423E-02
 -1       100-9.52948E-03-6.30957E-03-7.40199E-03
 -1       101-6.84736E-03-5.22230E-03-6.11035E-03
 -1       102-1.11694E-02-6.66068E-03-1.32393E-02
 -1       103-1.99019E-02-8.70259E-03-2.22223E-02
 -1       104-1.49976E-02-7.59184E-03-2.10156E-02
 -1       105-4.99637E-03-4.01403E-03-5.79845E-03
 -1       106-3.02120E-03-3.16447E-03-5.94176E-03
 -1       107-2.47402E-02-9.06683E-03-3.75811E-02
 -1       108-1.49393E-02-8.98943E-03-3.83184E-02
 -1       109-1.59827E-02-8.26538E-03-2.96450E-02
 -1       110-3.43295E-02-9.12030E-03-4.54964E-02
 -1       111-3.54293E-02-9.44383E-03-5.18851E-02
 -1       112-2.49085E-02-1.01394E-02-5.25185E-02
 -1       113-3.23115E-02-9.07526E-03-3.88408E-02
 -1       114-4.45686E-02-8.79573E-03-5.31596E-02
 -1       115-3.01418E-02-9.20120E-03-3.20903E-02
 -1       116-4.21786E-02-8.92868E-03-4.20260E-02
 -1       117-5.51451E-02-8.16853E-03-5.62158E-02
 -1       118-2.78326E-02-9.26110E-03-2.58739E-02
 -1       119-7.27374E-03-6.86142E-03-2.22911E-02
 -1       120-2.28602E-02 8.84383E-03-2.98423E-02
 -1       121-4.33725E-02 8.75467E-03-4.76898E-02
 -1       122-1.57637E-02 8.38794E-03-1.49946E-02
 -1       123-2.52728E-02 9.60633E-03-4.52266E-02
 -1       124-8.39377E-03 6.00462E-03-1.30378E-02
 -1       125-1.49159E-02 9.08641E-03-3.84535E-02
 -1       126-2.47167E-02 9.13131E-03-3.76170E-02
 -1       127-1.57832E-02 8.34446E-03-2.97468E-02
 -1       128-2.49406E-02 1.02932E-02-5.24564E-02
 -1       129-7.64498E-03 7.02651E-03-2.22744E-02
 -1       130-1.50087E-02 7.90485E-03-2.08989E-02
 -1       131-3.10225E-03 3.20548E-03-5.84608E-03
 -1       132-4.23254E-02 8.93825E-03-4.19304E-02
 -1       133-2.99373E-02 9.09163E-03-3.21191E-02
 -1       134-3.24141E-02 8.94802E-03-3.88610E-02
 -1       135-5.53430E-02 8.30005E-03-5.62129E-02
 -1       136-4.46102E-02 8.95386E-03-5.31148E-02
 -1       137-3.42433E-02 9.16366E-03-4.55665E-02
 -1       138-6.78070E-03 5.15753E-03-6.56541E-03
 -1       139-1.18266E-02 7.18782E-03-1.32577E-02
 -1       140-1.98179E-02 8.89900E-03-2.20369E-02
 -1       141-9.58568E-03 6.41386E-03-7.39424E-03
 -1       142-2.78467E-02 9.63570E-03-2.58157E-02
 -1       143-3.54804E-02 9.63284E-03-5.18646E-02
 -1       144-5.54338E-03 4.11773E-03-5.79047E-03
 -1       145-4.13590E-02 1.71135E-04-3.72449E-02
 -1       146-2.34063E-02 3.92729E-03-2.04976E-02
 -1       147-5.55232E-02 4.35104E-03-5.12023E-02
 -1       148-5.54551E-02-4.27671E-03-5.11693E-02
 -1       149-2.43215E-02-3.71656E-03-2.02382E-02
 -1       150-1.27631E-02-7.33131E-04-1.18876E-02
 -1       151-1.30488E-02-3.48126E-03-1.13982E-02
 -1       152-2.15381E-02-1.78967E-04-1.99567E-02
 -1       153-1.18878E-02 1.34874E-03-1.16414E-02
 -1       154-3.26625E-02 2.41601E-03-2.89862E-02
 -1       155-3.31898E-02-2.30927E-03-2.88743E-02
 -1       156-1.28587E-02 3.45658E-03-1.13594E-02
 -1       157-3.39349E-02-7.53277E-03-2.83978E-02
 -1       158-3.37789E-02 7.53384E-03-2.84168E-02
 -1       159-4.17291E-02 4.93606E-03-3.65230E-02
 -1       160-4.90332E-02 6.80444E-03-4.39693E-02
 -1       161-4.87128E-02 2.34314E-03-4.42851E-02
 -1       162-6.18011E-02 6.15836E-03-5.78291E-02
 -1       163-6.17836E-02 2.18609E-03-5.76969E-02
 -1       164-5.53870E-02 8.53466E-05-5.11161E-02
 -1       165-6.17299E-02-1.98357E-03-5.77230E-02
 -1       166-4.86789E-02-2.19873E-03-4.41548E-02
 -1       167-4.88011E-02-6.71220E-03-4.39896E-02
 -1       168-4.13951E-02-4.80373E-03-3.68187E-02
 -1       169-6.16445E-02-6.01985E-03-5.78091E-02
 -1       170-2.47075E-03-3.32281E-07-3.16921E-02
 -1       171-1.22696E-02 4.96473E-03-4.61450E-02
 -1       172-1.20977E-02-4.90189E-03-4.61715E-02
 -1       173 2.96745E-03 2.26442E-03-1.59358E-02
 -1       174 2.91864E-03-2.36184E-03-1.56550E-02
 -1       175 7.61942E-05 5.09281E-03-2.37201E-02
 -1       176 2.45260E-03 1.72077E-03-8.06293E-03
 -1       177 9.69769E-04 1.66144E-03-2.35991E-02
 -1       178-2.75840E-03 4.22197E-03-3.15109E-02
 -1       179-7.69058E-03 6.94940E-03-3.91290E-02
 -1       180-1.81920E-02 7.93965E-03-5.28171E-02
 -1       181-6.97643E-03 2.31194E-03-3.91393E-02
 -1       182-7.62359E-03-6.80392E-03-3.90086E-02
 -1       183-6.92468E-03-2.27537E-03-3.90577E-02
 -1       184-2.87873E-03-3.96883E-03-3.15422E-02
 -1       185-1.81099E-02-7.82683E-03-5.28757E-02
 -1       186-1.72611E-02-2.53440E-03-5.25782E-02
 -1       187-1.19965E-02 9.66819E-05-4.60425E-02
 -1       188 2.69147E-03 6.03065E-04-8.14881E-03
 -1       189 1.87180E-03 2.30471E-04-1.55512E-02
 -1       190 5.43570E-05-4.97267E-03-2.34780E-02
 -1       191 1.03827E-03-1.68210E-03-2.34539E-02
 -1       192 2.42320E-03-1.65973E-03-8.19553E-03
 -1       193 2.79392E-03-5.68453E-04-8.41535E-03
 -1       194-1.73791E-02 2.69416E-03-5.25629E-02
 -1       195-1.33595E-02 1.82259E-03-2.13131E-02
 -1       196-3.14313E-02-2.12211E-03-3.90017E-02
 -1       197-6.94919E-03-3.48028E-03-7.17887E-03
 -1       198-1.21820E-02-5.09463E-03-1.42135E-02
 -1       199-2.37581E-02-5.64840E-03-2.73012E-02
 -1       200-2.68359E-02-5.74643E-03-3.44174E-02
 -1       201-1.63018E-02-2.79174E-03-1.90407E-02
 -1       202-4.23089E-02 4.55066E-03-4.21142E-02
 -1       203-4.90842E-02 6.53165E-03-4.93359E-02
 -1       204-3.73382E-02 3.49797E-03-4.32849E-02
 -1       205-4.26688E-02 1.23746E-03-4.48981E-02
 -1       206-3.55476E-02-1.02075E-03-3.76168E-02
 -1       207-4.44686E-02 4.53167E-03-5.28879E-02
 -1       208-4.97266E-02 6.53203E-03-5.43195E-02
 -1       209-1.83411E-02 2.50497E-03-4.54211E-02
 -1       210-2.39574E-02 5.22473E-03-5.20451E-02
 -1       211-2.94175E-02-2.43965E-03-5.16205E-02
 -1       212-2.38653E-02-5.08811E-03-5.21233E-02
 -1       213-5.73564E-03-3.20777E-03-2.22829E-02
 -1       214-3.54872E-03-3.69166E-03-1.43065E-02
 -1       215-8.32212E-03-2.26773E-03-8.70595E-03
 -1       216-1.72559E-02-1.70611E-03-1.75140E-02
 -1       217-3.48608E-02 4.95424E-03-5.15521E-02
 -1       218-3.00790E-02 7.57300E-03-5.17626E-02
 -1       219-3.37100E-02 4.70110E-03-4.52751E-02
 -1       220-2.64590E-02 3.44741E-03-3.43487E-02
 -1       221-3.87803E-02-1.06903E-03-4.91213E-02
 -1       222-2.38307E-02 1.33191E-04-4.49464E-02
 -1       223-2.40806E-02-3.38574E-03-4.13121E-02
 -1       224-1.85507E-02-1.07370E-03-3.36458E-02
 -1       225-1.42977E-02-4.04275E-03-2.97386E-02
 -1       226-9.41563E-03-2.33467E-03-1.73548E-02
 -1       227-1.71881E-02-2.94482E-03-2.55653E-02
 -1       228-9.63707E-03 9.21593E-04-2.59435E-02
 -1       229-1.38584E-02-1.12155E-04-1.56614E-02
 -1       230-1.37654E-02-1.05858E-03-1.81548E-02
 -1       231-1.92996E-02 5.47819E-03-3.37174E-02
 -1       232-2.82919E-02 1.29969E-03-4.13429E-02
 -1       233-1.77872E-02 5.26984E-03-2.55669E-02
 -1       234-1.01634E-02-2.96786E-03-1.38936E-02
 -1       235-2.96661E-02 4.63121E-03-3.24203E-02
 -1       236-2.33118E-02 1.21517E-03-2.74098E-02
 -1       237-6.76984E-03 5.39932E-04-9.88204E-03
 -1       238-2.14244E-02 1.11721E-04-2.99214E-02
 -1       239-5.54403E-02-4.16568E-03-5.59127E-02
 -1       240-4.92339E-02-9.95034E-04-5.18441E-02
 -1       241-4.38086E-02-3.26986E-03-5.03194E-02
 -1       242-4.26000E-02-3.30222E-03-4.49733E-02
 -1       243-4.97031E-02-6.36756E-03-5.43017E-02
 -1       244-3.91791E-02-5.63788E-03-4.91555E-02
 -1       245-3.74746E-02-5.61949E-03-4.32864E-02
 -1       246-4.89393E-02-6.44136E-03-4.93297E-02
 -1       247-3.56726E-02-5.77842E-03-3.72021E-02
 -1       248-3.51393E-03 3.79060E-03-1.42463E-02
 -1       249-1.00325E-02 4.19564E-03-1.71927E-02
 -1       250-6.31092E-03 2.22278E-03-1.78027E-02
 -1       251-1.03464E-02 4.82964E-03-2.60946E-02
 -1       252-3.15004E-03 2.17403E-03-6.07540E-03
 -1       253-6.69510E-03 2.82915E-03-9.63920E-03
 -1       254-5.33896E-03 1.50963E-03-9.50499E-03
 -1       255-1.39967E-03 1.26304E-03-6.25223E-03
 -1       256-3.51350E-03 3.46128E-04-9.58923E-03
 -1       257-1.42032E-02 4.87592E-03-1.78174E-02
 -1       258-2.89414E-02-5.69682E-03-4.15230E-02
 -1       259-5.10948E-03-4.22643E-04-9.81614E-03
 -1       260-6.87283E-03 3.38225E-03-7.25247E-03
 -1       261-8.49023E-03 2.49645E-03-8.38272E-03
 -1       262-5.55607E-02 4.27862E-03-5.59078E-02
 -1       263-1.91474E-02-7.24066E-03-4.55634E-02
 -1       264-1.25548E-03-1.09842E-03-6.70444E-03
 -1       265-1.85334E-02-6.12568E-03-1.75053E-02
 -1       266-3.24809E-03-2.19401E-03-6.02807E-03
 -1       267-1.91413E-02 7.34715E-03-4.55800E-02
 -1       268-1.84732E-02 6.31631E-03-1.73748E-02
 -1       269-3.01249E-02-7.39044E-03-5.18049E-02
 -1       270-4.96581E-02 2.27102E-03-5.42032E-02
 -1       271-6.44810E-03 7.81255E-04-7.42233E-03
 -1       272-1.63604E-02 2.93486E-03-1.90427E-02
 -1       273-2.65476E-02-4.71205E-03-2.61232E-02
 -1       274-1.97185E-02-6.77068E-03-3.77326E-02
 -1       275-3.50107E-02-4.76537E-03-5.15850E-02
 -1       276-3.87025E-03-1.58694E-03-6.24233E-03
 -1       277-1.37944E-02 4.58940E-03-3.83447E-02
 -1       278-2.25451E-02 6.79446E-03-2.38249E-02
 -1       279-2.80320E-03-1.20429E-03-1.42116E-02
 -1       280-5.32384E-03 1.88752E-03-6.50264E-03
 -3
    1PSTEP                         2           1           1          
  100CL  101 1.000000000         280                     0    1           1
 -4  STRESS      6    1
 -5  SXX         1    4    1    1
 -5  SYY         1    4    2    2
 -5  SZZ         1    4    3    3
 -5  SXY         1    4    1    2
 -5  SYZ         1    4    2    3
 -5  SZX         1    4    3    1
 -1         1-2.62033E+03-8.71861E+02-8.00594E+02-4.29349E+02-1.21884E+02-5.42662E+02
 -1         2 1.45181E+02 6.31739E+01-1.03636E+02-1.07136E+02-1.41677E+01-3.39091E+02
 -1         3-2.63240E+03-8.70703E+02-8.08259E+02 4.25133E+02 1.17258E+02-5.39613E+02
 -1         4 1.49277E+02 5.62241E+01-9.53753E+01 1.09333E+02 1.30227E+01-3.22713E+02
 -1         5-9.68956E+02-1.33330E+00 3.03170E+01-3.08397E-01 1.02490E+00 3.13419E+01
 -1         6-1.03102E+03-3.07306E+00-4.37280E+02 1.59150E+00-4.66456E+00 3.26197E+01
 -1         7-9.68940E+02-7.60521E-01 2.88429E+01-7.23445E-01-1.48397E+00 3.03268E+01
 -1         8-1.03293E+03-2.32083E+00-4.34511E+02 3.72598E-01 1.94823E+00 3.25672E+01
 -1         9-1.19032E+03-4.50808E+02-5.00645E+02-3.04651E+02 2.51763E+00-3.31859E+02
 -1        10-1.83136E+03-7.84872E+02-7.84871E+02-4.68731E+02-4.07499E-05-3.69591E+02
 -1        11-8.61015E+02-3.69008E+02-3.69007E+02-2.66827E+02-8.99045E-05-3.18092E+02
 -1        12-2.50090E+03-1.03533E+03-9.80587E+02 2.55136E+01 8.66840E-02-7.12745E+02
 -1        13-2.94023E+03-1.26010E+03-1.26010E+03-1.44990E+02 1.36542E-04-8.10257E+02
 -1        14-2.80930E+03-1.20399E+03-1.20399E+03 1.74871E+02-7.91054E-05-7.84731E+02
 -1        15-1.15278E+03-3.87708E+02-4.44204E+02 2.56619E+02-1.04664E+01-3.58609E+02
 -1        16-1.82743E+03-7.83185E+02-7.83183E+02 4.53993E+02 1.19796E-04-3.97680E+02
 -1        17-9.58186E+02-4.10652E+02-4.10651E+02 2.65900E+02 6.70558E-05-3.14929E+02
 -1        18 3.65394E+02 1.10397E+02 1.06370E+01 5.13755E+00 8.43752E+00-3.76702E+02
 -1        19 8.09372E+02 3.46874E+02 3.46875E+02-6.44462E+01 4.23156E-05-5.40513E+02
 -1        20 7.88382E+02 3.37878E+02 3.37880E+02 7.33303E+01 1.96053E-05-5.07309E+02
 -1        21-9.88721E+02-3.69550E+00-1.98159E+02-4.17522E+00-1.00374E+01-4.68041E+01
 -1        22-9.86933E+02-2.52063E+00-4.78047E+01 8.46483E-01-7.55930E+00-7.38114E+00
 -1        23-1.02542E+03-7.92177E+00-3.63510E+02-4.31012E+00-8.17986E+00-9.49254E+00
 -1        24-9.68683E+02 4.62579E+01 2.85312E+01-7.57290E-01-1.55336E+00 3.91984E+01
 -1        25-9.70564E+02 2.68505E+01 2.76004E+01-1.46047E+00 1.30959E+00 2.60990E+01
 -1        26-9.73518E+02 1.87026E+01 2.29109E+01-1.67917E+00-1.91174E+00 1.77488E+01
 -1        27-9.98016E+02 2.50018E+00-1.92944E+02-1.70816E+00 1.38076E+01-4.40457E+01
 -1        28-9.83657E+02 3.10680E+00-3.97776E+01-3.47683E+00 8.37021E+00-7.31745E+00
 -1        29-1.01931E+03-4.11693E+00-3.59635E+02 2.85589E+00 8.34479E+00-7.02674E+00
 -1        30-1.02057E+03 1.99979E+01-4.18145E+02-4.09095E+00 3.42755E+00 2.00601E+01
 -1        31-1.01642E+03 1.13465E+01-4.20480E+02 3.15329E+00-1.71932E-01 1.51989E+01
 -1        32-1.02136E+03 4.95505E+00-4.23189E+02-4.53723E+00 2.20562E+00 1.54864E+01
 -1        33-1.10507E+03 4.69946E+01 5.74216E+01 6.80732E+01 4.81585E+00-3.21299E+01
 -1        34-1.71351E+03-1.05874E+02-5.59660E+01-6.47335E+01-4.24513E+01-1.48727E+02
 -1        35-1.03418E+03-2.35507E+00 8.18581E+00 1.08932E+01-6.75927E+00-1.83054E+01
 -1        36-7.33302E+02-1.17269E+01-4.22689E+02-7.93121E+00 5.40186E+00-3.73217E+01
 -1        37-2.85276E+02 1.07898E+01-3.85380E+02-4.48257E+01 7.17324E+00-1.14338E+02
 -1        38-9.21472E+02-1.00069E+00-4.12051E+02 1.42259E+00-1.37876E+00-1.00950E+01
 -1        39-1.09927E+03 5.06414E+01 4.66247E+01-7.25549E+01-5.97825E+00-1.13995E+01
 -1        40-1.72846E+03-9.34075E+01-6.35714E+01 6.05396E+01 5.22179E+01-1.38590E+02
 -1        41-1.02651E+03-2.71187E+00 9.47145E+00-1.13576E+01 5.75126E+00-1.30502E+01
 -1        42-7.07184E+02-7.56299E+00-4.24052E+02 4.00318E+00 4.30581E+00-4.26043E+01
 -1        43-2.88855E+02 1.98232E+00-3.88626E+02 4.92507E+01 3.50076E+00-1.01462E+02
 -1        44-9.23334E+02-3.57402E-02-4.13718E+02-4.97321E+00 3.65991E+00-9.22587E+00
 -1        45-8.44932E+02-3.40561E+02-3.52689E+02-1.66947E+00 1.92094E+01-3.92295E+02
 -1        46-5.32900E+02-2.16635E+02-2.21381E+02-6.75880E+01-4.55243E+00-3.88256E+02
 -1        47-1.32260E+03-4.76656E+02-5.17511E+02-1.67608E+02-2.39734E+01-4.89472E+02
 -1        48-6.12344E+02-2.51922E+02-2.19922E+02 9.47949E+01-1.83548E+00-3.51116E+02
 -1        49-1.21441E+03-5.38225E+02-5.38887E+02 1.66284E+02-9.74092E+00-4.22143E+02
 -1        50-2.84942E+02-1.09326E+02-1.62915E+02-1.05864E+02-7.53951E+00-3.63645E+02
 -1        51-9.09881E+02-3.89950E+02-3.89949E+02-2.07107E+02-1.09738E-04-3.23403E+02
 -1        52-1.02893E+03-4.29183E+02-4.01676E+02-1.61816E+02-3.96648E+00-3.63283E+02
 -1        53-7.08117E+02-2.92560E+02-3.10715E+02-4.88510E+01 9.91568E-01-3.66030E+02
 -1        54-1.25197E+03-4.77717E+02-5.46491E+02-2.46511E+02 1.31683E+01-3.76524E+02
 -1        55-1.84320E+03-7.06211E+02-6.87207E+02-3.06689E+02-5.02032E+01-5.18694E+02
 -1        56-1.15537E+03-4.50108E+02-4.55671E+02-7.36965E+01-2.27609E+01-4.34372E+02
 -1        57-1.90408E+03-7.88353E+02-7.51714E+02-6.65827E+01 2.47719E+01-6.04209E+02
 -1        58-1.52187E+03-6.31445E+02-6.45997E+02 1.05729E+01-6.50426E+00-5.29442E+02
 -1        59-1.86841E+03-8.00750E+02-8.00751E+02 1.15786E+02-1.85349E-04-6.01551E+02
 -1        60-1.90153E+03-7.47078E+02-7.32080E+02 3.06087E+02 4.05810E+01-5.01115E+02
 -1        61-8.27525E+02-3.67806E+02-3.77309E+02 6.24594E+01-9.63935E+00-3.74579E+02
 -1        62-7.93082E+01-5.52276E+01-8.74921E+01-4.81669E+01 2.01227E+01-4.00441E+02
 -1        63-5.17428E+02-2.21756E+02-2.21755E+02-1.03534E+00-1.97694E-05-3.61625E+02
 -1        64-8.37695E+02-3.20407E+02-3.37464E+02 1.58051E+02 1.61959E+01-3.50672E+02
 -1        65-2.74189E+02-1.10413E+02-1.40571E+02 1.13454E+02 4.29830E+00-3.44867E+02
 -1        66-7.79544E+02-3.34091E+02-3.34091E+02 4.66976E+01-1.35198E-05-3.58169E+02
 -1        67-9.55105E+02-4.13803E+02-4.24234E+02 1.31923E+02-1.86546E+01-3.59609E+02
 -1        68-1.98667E+02-9.00018E+01-1.12457E+02 5.72057E+01-8.66184E+00-3.53897E+02
 -1        69-1.24312E+03-5.32769E+02-5.32768E+02 2.67432E+02 4.15519E-05-3.88955E+02
 -1        70-1.02008E+03 2.46401E+01-1.92223E+02 1.57213E+00 3.94680E+00-3.93188E+01
 -1        71-1.00021E+03-2.34054E+00-3.79298E+02 4.99240E+00-9.81606E+00 6.11209E-01
 -1        72-1.01000E+03 5.11927E+00-3.66099E+02-8.33343E+00 7.66717E+00-1.48092E+01
 -1        73-1.00292E+03 2.85663E+01-1.33638E+01-1.68269E+00 5.55142E+00 1.39100E+00
 -1        74-9.99251E+02 2.06209E+01-1.70347E+01 4.09227E+00-1.17360E+01-2.21758E+00
 -1        75-1.01109E+03 1.39423E+01-3.90445E+02-1.00233E+01 5.76988E+00 1.99543E-01
 -1        76-1.00641E+03-4.47227E-01-4.03907E+02-3.76081E+00 3.31148E+00 8.43840E+00
 -1        77-1.00955E+03-3.29305E+00-3.03796E+02-1.15542E-01 1.54358E+01-2.06488E+01
 -1        78-1.01885E+03 1.70814E+01-3.39615E+02 2.36419E+00 1.98238E+00-1.44966E+01
 -1        79-1.02497E+03 1.20499E+01-2.97017E+02-3.35072E+00 9.42701E+00-2.66825E+01
 -1        80-1.01038E+03 1.58961E+01-1.94814E+02-3.89245E-01 1.62254E+01-3.11065E+01
 -1        81-9.99520E+02 3.51599E+01 1.45302E+01-1.85202E+00 3.60684E-02 8.48250E+00
 -1        82-9.93625E+02 1.02916E+01 8.21978E+00-8.41822E-01 2.89293E+00 1.33284E+01
 -1        83-9.95282E+02 1.83876E+01-8.43347E+01-4.80126E+00 1.00204E+01-1.74261E+01
 -1        84-9.98523E+02 3.86275E+01-8.79078E+01 3.66769E+00 8.16444E+00-1.73142E+01
 -1        85-9.90760E+02 4.32752E+01-4.16474E+01 2.03360E+00 1.17528E+00-5.42350E+00
 -1        86-9.91860E+02 3.69739E+01 9.81472E+00 2.66805E+00-9.66261E+00 1.99079E+01
 -1        87-9.93681E+02 7.50326E+00 1.21022E+01 2.40068E+00-3.16988E+00 1.02573E+01
 -1        88-9.79059E+02 1.44302E+01-9.17210E+01 8.49334E-01-1.02171E+01-2.37903E+01
 -1        89-9.94294E+02 3.05487E+01-8.38035E+01 2.74478E+00-1.51661E+01-1.99301E+01
 -1        90-9.99825E+02 4.26087E+00-2.05480E+02 1.85327E+00-1.12379E+01-3.14090E+01
 -1        91-9.99763E+02 1.72381E+01-3.96372E+02 2.99871E+00-1.51318E+00 4.72594E+00
 -1        92-1.00763E+03-5.62814E+00-4.13209E+02 4.25411E+00-5.56496E+00 1.32914E+01
 -1        93-1.00233E+03 2.89067E+00-2.99533E+02 4.24421E+00-1.06673E+01-1.40717E+01
 -1        94-1.01369E+03-9.72793E+00-3.09201E+02-9.28923E-01-1.21121E+01-2.02716E+01
 -1        95-9.59957E+02 6.30848E+01-1.62694E+02 2.36328E+01 1.02820E+01-3.57174E+02
 -1        96-9.06157E+02 9.27142E+00-3.19154E+02 3.26462E+00-1.26284E+00-1.28159E+02
 -1        97-1.06157E+03-3.13188E-01-7.15921E+01 1.14769E+01-3.86947E+00-1.20995E+02
 -1        98-1.27753E+03 6.76326E+01-7.74710E+01 1.92694E+01 3.95434E+01-3.57438E+02
 -1        99-6.79414E+02 3.07807E+01-2.66864E+02-3.57044E+01 2.04128E+01-3.42889E+02
 -1       100-1.83325E+03-2.58966E+02-3.44715E+02-1.89299E+02-5.77106E+01-4.19869E+02
 -1       101-1.10736E+03-5.44456E-01-2.60130E+02-1.08086E+02 1.24083E+01-3.45425E+02
 -1       102-1.01145E+03-3.91634E+01-2.49564E+02-9.90496E+01 1.20933E+00-3.66406E+02
 -1       103-1.09195E+03 9.33245E+01-7.99019E+01 2.42583E+01 9.11083E+00-3.41907E+02
 -1       104-8.65673E+02 2.54348E+01-2.53986E+02-5.50373E+00 1.23804E+01-3.52927E+02
 -1       105-9.55927E+02-1.83004E+02-3.33608E+02-1.57938E+02 9.37274E+00-3.46805E+02
 -1       106-3.44603E+02 3.89882E+01-2.35904E+02-6.30994E+01-7.22058E+00-3.22283E+02
 -1       107-8.76985E+02 9.19473E+00-2.42521E+02 2.11223E+01 1.29644E+00-2.38639E+02
 -1       108-8.21300E+02-4.93424E-01-3.66983E+02 2.30374E+00 7.20965E+00-1.02122E+02
 -1       109-7.85851E+02 7.47014E+00-3.02509E+02 1.26868E+01 1.35847E+01-2.19547E+02
 -1       110-9.65994E+02 7.96011E-01-1.88529E+02 1.21096E+01-2.25781E+00-1.98523E+02
 -1       111-9.54343E+02-7.18622E-01-2.69308E+02-5.17324E-04-5.62602E+00-8.73915E+01
 -1       112-9.65258E+02 7.65532E+00-3.75126E+02-2.05336E+00-3.20994E+00-4.31090E+01
 -1       113-1.02066E+03-3.31240E+00-1.26866E+02 1.90292E+01-1.68254E+00-2.46499E+02
 -1       114-1.02472E+03-8.20698E-01-1.21697E+02 1.01424E+00-5.66208E+00-8.88226E+01
 -1       115-1.06031E+03 1.78241E+00-6.20493E+01 3.19265E+01-6.93951E+00-2.19502E+02
 -1       116-1.10334E+03 7.31392E-01-2.78290E+01 1.75927E+01-6.80838E+00-1.03537E+02
 -1       117-1.01914E+03-6.98910E-01-2.38425E+01 7.32992E+00-1.39321E+00-3.93552E+01
 -1       118-1.18720E+03 3.13813E+01 7.78424E+00 6.07177E+01 3.45501E+01-1.77220E+02
 -1       119-6.55467E+02-5.03833E+00-3.67139E+02-3.18184E+01 1.57530E+01-1.74177E+02
 -1       120-9.51482E+02 1.77792E+01-1.80715E+02-3.55024E+01-8.14006E+00-3.59775E+02
 -1       121-1.05869E+03-5.82070E+00-6.96007E+01-1.19807E+01 5.66106E+00-1.18989E+02
 -1       122-1.27219E+03 7.25200E+01-1.24355E+02 2.60756E+01-2.81059E+01-3.55186E+02
 -1       123-9.11126E+02 9.92355E+00-3.25940E+02-5.97379E+00-4.47537E-01-1.21396E+02
 -1       124-6.80196E+02 5.23286E+01-2.63165E+02 1.51979E+01-2.50859E+01-3.38118E+02
 -1       125-8.22978E+02-1.29668E+00-3.74372E+02-4.40593E+00 2.12119E+00-9.13973E+01
 -1       126-9.10176E+02 1.51776E+01-2.46912E+02-1.62484E+01-6.57107E+00-2.32566E+02
 -1       127-7.70172E+02 1.39507E+01-3.04059E+02-7.92983E+00 5.42558E+00-2.31797E+02
 -1       128-9.66866E+02 5.03460E+00-3.76648E+02 1.19185E+00 1.28362E+00-3.94622E+01
 -1       129-6.26923E+02 7.44562E+00-3.59941E+02 1.30171E+01-8.77234E+00-1.83727E+02
 -1       130-8.06855E+02 9.48358E+00-2.50510E+02-2.74538E+01-2.59353E+01-3.58804E+02
 -1       131-3.50661E+02 4.05258E+01-2.22552E+02 5.18610E+01 3.94854E+00-3.06572E+02
 -1       132-1.11881E+03-1.49789E+01-4.16638E+01-1.55803E+01 8.41732E+00-9.41687E+01
 -1       133-1.06275E+03-2.36336E+00-7.62123E+01-3.64089E+01 2.84112E-02-2.13719E+02
 -1       134-1.04404E+03-1.65614E+01-1.43671E+02-1.45683E+01-3.22073E+00-2.33955E+02
 -1       135-1.01785E+03-4.92768E+00-2.19931E+01-6.26543E+00 2.61914E+00-4.04387E+01
 -1       136-1.02752E+03-2.21039E+00-1.23531E+02-9.28982E+00 8.12063E+00-8.30853E+01
 -1       137-9.79176E+02-3.56566E+00-1.93809E+02-1.01827E+01-8.60650E-01-1.93248E+02
 -1       138-1.20198E+03-1.55339E+02-3.18866E+02 1.55529E+02-3.38856E+01-3.49946E+02
 -1       139-9.96652E+02-3.84198E+01-2.35755E+02 5.37496E+01-1.21887E+01-3.86447E+02
 -1       140-1.01604E+03 4.95181E+01-9.21964E+01-2.77157E+01-7.57835E+00-3.65403E+02
 -1       141-1.83876E+03-2.36617E+02-3.61852E+02 2.07196E+02 4.95588E+01-4.08531E+02
 -1       142-1.11608E+03 1.22659E+02 5.55804E+01-8.32520E+01-4.87479E+01-1.49517E+02
 -1       143-9.51688E+02 3.34184E+00-2.65001E+02-2.94544E+00 5.55597E+00-8.66535E+01
 -1       144-9.30698E+02-9.42894E+01-2.94302E+02 1.10167E+02-2.29491E-01-3.51378E+02
 -1       145-1.34334E+03 3.97352E+01 9.55746E+01-3.55311E+00-3.91555E+00-2.81999E+01
 -1       146-1.75664E+03-9.94776E+01 3.36429E+01 5.19098E+01 3.12507E+00-1.69534E+02
 -1       147-1.02696E+03 3.03275E+01 1.47591E+01-1.66712E+01 5.67200E-01-4.61126E+00
 -1       148-1.02466E+03 2.99420E+01 4.57230E-01 1.75549E+01-1.92581E+00 3.97656E-01
 -1       149-1.65040E+03-1.70895E+01 1.58710E+02-4.80955E+01-4.84669E+00 2.09048E+01
 -1       150-2.00699E+03-4.70235E+02-1.76985E+02 7.89112E+00-1.32910E+00-2.76341E+02
 -1       151-2.18209E+03-4.03318E+02-2.57277E+02-2.26006E+02-7.04107E+01-2.76160E+02
 -1       152-1.83751E+03-3.78446E+02-2.32107E+02 1.29454E+01-9.09346E+00-2.88356E+02
 -1       153-2.12053E+03-5.42578E+02-4.07644E+02 2.35688E+01-1.90602E+00-4.47269E+02
 -1       154-1.54438E+03-3.77196E+01 5.27371E+01-1.30698E+00-1.35103E+01-1.14666E+02
 -1       155-1.47580E+03 2.07917E+01 1.62205E+02 2.45614E+01-1.91703E+01 5.71555E+01
 -1       156-2.14837E+03-4.13184E+02-2.19981E+02 2.02142E+02 7.08128E+01-3.14271E+02
 -1       157-1.24266E+03 1.05619E+02 8.15837E+01 3.58154E+01 4.64012E+01 1.27654E+01
 -1       158-1.38165E+03 3.34074E+01 4.39384E+01-3.42226E+01-2.17929E+01-3.26485E+01
 -1       159-1.20604E+03 8.03532E+00 1.34562E+01-3.80887E+01 1.12709E+01-3.83307E+01
 -1       160-1.07742E+03 1.59184E+01 2.77092E+00-2.41752E+01 8.59201E+00-2.46692E+01
 -1       161-1.08146E+03 4.71114E+01 4.27084E+01-1.88729E+01 1.61165E+00-9.99241E+00
 -1       162-9.89854E+02 1.66735E+01 9.32225E+00-7.08168E+00-8.72237E-01 1.23574E+01
 -1       163-9.97127E+02 3.42754E+01 1.92185E+01-1.08721E+01-2.87143E+00 1.24370E+01
 -1       164-1.03785E+03 5.02327E+01 3.25959E+01-1.76700E+00-3.73393E+00 1.34599E+01
 -1       165-9.94398E+02 3.83275E+01 3.14526E+00 1.10130E+01 5.59686E-02 1.98242E+01
 -1       166-1.08997E+03 5.47109E+01 2.74546E+01 1.18093E+01-4.95361E+00-3.14627E+00
 -1       167-1.09380E+03 1.46415E+01 1.27742E+01 2.23164E+01-8.30844E+00-3.25185E+01
 -1       168-1.22361E+03 2.19847E+01 3.48540E+01 3.99449E+01-1.30683E+01-1.04190E+01
 -1       169-9.87643E+02 1.40115E+01 8.87877E+00 5.48271E+00-6.01628E-01 1.25917E+01
 -1       170-7.42047E+02-2.88677E+01-4.43074E+02-5.10465E+00-4.01236E+00-6.00126E+01
 -1       171-9.80658E+02-1.34953E+01-4.02200E+02-3.47756E+00 1.13401E+00-1.23548E+00
 -1       172-9.53017E+02-1.01348E+01-4.22262E+02 1.08508E+01-3.40890E-01-5.35269E+00
 -1       173-2.78420E+02-3.68370E+01-4.68048E+02 4.73476E+01-5.25398E+00-6.84536E+01
 -1       174-3.23626E+02-5.22938E+01-4.76594E+02-5.73595E+01 1.10118E+00-6.27637E+00
 -1       175-5.63859E+02-3.05603E+01-4.30845E+02 2.53033E+01 7.27333E-01-3.83780E+01
 -1       176 1.65908E+01 3.05787E+01-3.13182E+02 6.33399E+01-5.34079E-01-1.84162E+02
 -1       177-5.64322E+02-3.92228E+01-4.38814E+02 3.64156E+01 1.48252E+00-5.79809E+01
 -1       178-7.73930E+02-2.62097E+01-4.34267E+02 6.58220E+00 2.19444E+00-4.36771E+01
 -1       179-8.79103E+02-1.18991E+01-4.08029E+02-7.05685E+00 2.59474E+00-2.59935E+01
 -1       180-1.01286E+03-7.55178E+00-4.12848E+02-2.91089E+00 1.06311E+00 1.31500E+01
 -1       181-8.93905E+02-2.10033E+01-3.98377E+02 5.65709E+00-1.52281E+00-2.03926E+01
 -1       182-8.66720E+02-1.56201E+01-4.28696E+02-2.57674E+00-1.72037E+00-2.23150E+01
 -1       183-8.83039E+02-3.88055E+01-4.50328E+02 1.12951E+00-9.78347E+00-4.28686E+01
 -1       184-7.20545E+02-1.94656E+01-4.22689E+02-9.23605E+00-1.37102E+01-3.95434E+01
 -1       185-1.01076E+03-7.32403E+00-4.11830E+02 9.16432E+00-3.92409E+00 1.41995E+01
 -1       186-1.00393E+03 6.59739E+00-4.11535E+02 9.29926E-01 6.56332E+00 7.77739E-02
 -1       187-9.35959E+02-1.00045E+01-4.09747E+02-2.63573E+00-6.49102E+00-2.48195E+01
 -1       188 8.55645E+01 3.18358E+01-2.81673E+02 6.43714E+01-1.14658E+01-1.98322E+02
 -1       189-1.94241E+02 1.88460E+01-3.36894E+02-8.15142E+00 2.42828E+01-1.60956E+02
 -1       190-5.76619E+02-3.61831E+01-4.09258E+02-2.39258E+01 3.96032E+00-1.80764E+01
 -1       191-5.50649E+02-4.86110E+01-4.87466E+02-4.43176E+01-7.85885E+00 1.58996E+01
 -1       192 1.33935E+01 3.75253E+01-2.87152E+02-6.28418E+01-2.04933E+00-1.75558E+02
 -1       193 1.35318E+02 7.16008E+01-2.39326E+02-5.15373E+01 3.71085E+00-2.03451E+02
 -1       194-1.00194E+03-7.64266E-02-4.01704E+02-4.77900E+00-7.51151E-01 3.19564E+00
 -1       195-9.16867E+02-4.60204E+01-2.74790E+02 9.99080E+00-8.18395E+00-3.68528E+02
 -1       196-1.11628E+03 1.31061E+01-1.25709E+02 1.58234E+01 3.73326E+00-2.26417E+02
 -1       197-1.27795E+03-1.55390E+02-2.86759E+02-7.60914E+01 6.25698E+00-4.22372E+02
 -1       198-1.14055E+03-1.27848E+02-2.64054E+02-6.21380E+01-9.86530E+00-3.89010E+02
 -1       199-1.20489E+03 7.29287E-01-9.57085E+01 9.90172E+00 2.28423E+01-2.86207E+02
 -1       200-1.05599E+03 1.89972E+01-1.64896E+02 2.02228E+01 1.07897E+01-3.01003E+02
 -1       201-1.18278E+03-1.41577E+02-2.06853E+02-4.77685E+01-1.60117E+01-3.51641E+02
 -1       202-1.12554E+03 1.88769E+01-7.60544E+00-1.54534E+01 6.09000E+00-7.89902E+01
 -1       203-1.04445E+03 1.40500E+01-2.25332E+01-1.24753E+01 4.82723E+00-5.88771E+01
 -1       204-1.09679E+03-7.66369E+00-1.01572E+02-6.79232E+00 6.67612E+00-1.51577E+02
 -1       205-1.09743E+03 7.05427E+00-6.36344E+01-7.59763E+00 1.95043E+00-9.28628E+01
 -1       206-1.23805E+03 1.58172E+01-3.20814E+01 2.38696E+00 1.47089E+00-1.34001E+02
 -1       207-1.02556E+03 1.55100E+01-1.14553E+02-6.80287E+00 7.87247E+00-7.55705E+01
 -1       208-1.02636E+03 1.09181E+01-4.29383E+01-9.86314E+00 5.08006E+00-5.51890E+01
 -1       209-9.26596E+02-1.41259E+01-3.84967E+02-6.21344E+00-4.32087E-01-4.65911E+01
 -1       210-9.87656E+02-1.67883E+00-3.80305E+02-9.05880E+00 9.15281E-01-1.51854E+01
 -1       211-9.79970E+02 7.19089E+00-3.24010E+02 8.89434E+00 1.21109E+00-3.26598E+01
 -1       212-9.87639E+02-3.47563E+00-3.89947E+02 1.19475E+01-2.22257E+00-9.40998E+00
 -1       213-6.34936E+02-1.68868E+01-3.64004E+02-2.24651E+01 1.19191E+01-1.98502E+02
 -1       214-4.61640E+02-3.64522E-01-3.52070E+02-4.69984E+01 1.32946E+01-2.01091E+02
 -1       215-1.47211E+03-2.43815E+02-1.66795E+02-1.09954E+02-1.47861E+01-2.59340E+02
 -1       216-1.45102E+03-2.19685E+02-1.95172E+02-6.20476E+01-6.22587E+00-2.70845E+02
 -1       217-9.89479E+02 8.08346E+00-2.73563E+02-8.17109E+00 1.56443E+00-8.19492E+01
 -1       218-9.67652E+02 5.14389E+00-3.46507E+02-3.99561E+00 3.40361E+00-6.61539E+01
 -1       219-1.01018E+03 5.43098E+00-1.91143E+02-1.34456E+01 9.63192E-01-1.73566E+02
 -1       220-1.06377E+03-1.25763E+01-1.65759E+02-1.10973E+01-1.42928E+00-2.64305E+02
 -1       221-1.04353E+03 1.92386E+01-1.45865E+02 6.76218E+00 2.80786E+00-1.29166E+02
 -1       222-9.28023E+02-2.44852E+00-3.32742E+02-7.78243E+00 4.15818E-01-7.73118E+01
 -1       223-9.67429E+02 8.43471E+00-2.79384E+02 1.25140E+01 2.05764E+00-1.41734E+02
 -1       224-9.14570E+02-1.20369E+01-2.98280E+02-3.55471E-01-8.19516E-01-1.95406E+02
 -1       225-8.11629E+02-3.51317E+00-3.14030E+02 2.65131E+00 6.03905E+00-2.21039E+02
 -1       226-8.30383E+02-6.12101E+01-2.76528E+02-2.40291E+01 7.53043E+00-3.22719E+02
 -1       227-9.92503E+02-4.32602E+01-2.61514E+02-6.42767E+00-1.01215E+00-3.43942E+02
 -1       228-7.82492E+02-3.35664E+01-3.52494E+02-1.19628E+00-3.35370E+00-2.11340E+02
 -1       229-1.19717E+03-1.45382E+02-1.28104E+02 4.88459E+00 2.09002E+01-2.59962E+02
 -1       230-1.03499E+03-1.17602E+02-2.27014E+02 1.63468E+01 1.69863E+01-3.47199E+02
 -1       231-8.73394E+02 1.57715E+00-2.86573E+02 2.16174E+00-7.35563E+00-2.34809E+02
 -1       232-9.79151E+02-9.47793E+00-2.32676E+02 2.01892E+00-4.72074E+00-2.03449E+02
 -1       233-9.43232E+02-7.38577E+00-2.42448E+02-1.86367E+01-1.05175E+01-3.72592E+02
 -1       234-9.53348E+02-9.09522E+01-2.20118E+02-1.30678E+01 1.36212E+01-3.68305E+02
 -1       235-1.16182E+03-2.11611E+00-7.02976E+01-2.18526E+01-1.30625E+00-2.05286E+02
 -1       236-1.21766E+03-3.79591E+01-1.34597E+02-1.12704E+01-1.73104E+01-2.67029E+02
 -1       237-9.16457E+02-1.97359E+02-3.15439E+02 1.44189E+01 1.73214E+01-3.86645E+02
 -1       238-1.05284E+03-4.09713E+01-2.34369E+02 1.19238E+01-4.62037E+00-3.30463E+02
 -1       239-1.02381E+03 1.62813E+01-1.97681E+01 1.12060E+01-7.70752E+00-5.55099E+00
 -1       240-1.05257E+03 1.76203E+01-5.89243E+01-5.74287E-01 3.71188E+00-6.66356E+01
 -1       241-1.05278E+03 1.55959E+01-7.43589E+01 5.88764E+00-7.39859E+00-9.28820E+01
 -1       242-1.08975E+03 1.71324E+01-6.16662E+01 1.39119E+01 2.90481E-01-9.58975E+01
 -1       243-1.03040E+03 7.75333E+00-4.74219E+01 9.35807E+00-4.64055E+00-5.98877E+01
 -1       244-1.03650E+03 7.37929E+00-1.65672E+02 7.56800E+00-5.88205E+00-1.29563E+02
 -1       245-1.09553E+03 7.27900E+00-1.02353E+02 1.79522E+01-6.56375E+00-1.60246E+02
 -1       246-1.04145E+03 1.43889E+01-3.13348E+01 1.30784E+01-4.74162E+00-5.77934E+01
 -1       247-1.17208E+03-5.15460E+00-5.78394E+01 3.30212E+01-1.24279E+01-1.36978E+02
 -1       248-4.76747E+02-3.03560E+00-3.63319E+02 3.94983E+01-1.45281E+01-2.17834E+02
 -1       249-8.25041E+02-2.08858E+01-2.97717E+02 2.55193E+01-3.13180E+01-3.50053E+02
 -1       250-5.92929E+02-3.03851E+01-3.47510E+02 2.07438E+01-4.86929E+00-2.31263E+02
 -1       251-7.56216E+02-1.18032E+01-3.38310E+02 1.37067E+01-6.60638E+00-2.04258E+02
 -1       252-6.35683E+02-6.12391E+01-2.05413E+02 6.67182E+01-1.67058E+01-3.51058E+02
 -1       253-9.83698E+02-1.36969E+02-3.00276E+02 1.06076E+02-1.07365E+01-3.71309E+02
 -1       254-7.67298E+02-1.31880E+02-2.32381E+02 4.94959E+01-3.97764E+00-3.61426E+02
 -1       255-4.45763E+02-1.57492E+02-3.67887E+02 7.18759E+01-5.13722E+00-2.16307E+02
 -1       256-4.18260E+02-3.54653E+01-2.06487E+02 8.47751E+00 2.59510E-01-3.26395E+02
 -1       257-1.05249E+03 6.79811E+00-1.88771E+02 2.60793E+01-5.30420E+00-3.79063E+02
 -1       258-9.83464E+02 1.41763E+01-2.24763E+02 9.69643E+00-2.06368E+00-1.92567E+02
 -1       259-7.37934E+02-1.59190E+02-2.72612E+02-2.75062E+01-2.34410E+00-3.43716E+02
 -1       260-1.28417E+03-2.10579E+02-3.54920E+02 9.35846E+01-2.26079E+01-3.95134E+02
 -1       261-1.53254E+03-3.28162E+02-2.10325E+02 1.09038E+02 5.22993E+00-3.04007E+02
 -1       262-1.01786E+03 2.13389E+01-7.59112E+00-7.10204E+00 2.52130E+00-8.43954E+00
 -1       263-9.25989E+02 1.76536E+00-3.71860E+02 7.93429E+00-1.76285E+00-6.45898E+01
 -1       264-4.28411E+02-1.36312E+02-3.49837E+02-5.72827E+01-4.46049E+00-2.13811E+02
 -1       265-1.53775E+03-2.95758E+01-4.60656E+01-1.31354E+01 4.71592E+01-2.03654E+02
 -1       266-6.09261E+02-7.00757E+01-2.31158E+02-5.70968E+01 8.52474E+00-3.66953E+02
 -1       267-9.47876E+02-2.25835E+00-3.68701E+02-3.12236E+00 4.30838E+00-5.71392E+01
 -1       268-1.55710E+03-4.25331E+01-7.31954E+01 4.61761E+01-2.16004E+01-2.68201E+02
 -1       269-9.59043E+02 3.79702E+00-3.50041E+02-4.93927E-01-5.61197E+00-6.11264E+01
 -1       270-1.02295E+03 2.60562E+01-6.91575E+01-7.95064E+00 3.97067E+00-3.30218E+01
 -1       271-1.29786E+03-2.45932E+02-2.04911E+02 4.55532E+01 2.73453E+01-3.21123E+02
 -1       272-1.28136E+03-7.18083E+01-1.58992E+02 3.86934E+01-9.39610E+00-3.11684E+02
 -1       273-1.40407E+03-1.96137E+01-1.21214E+01 1.65094E+01 3.12596E+01-1.71207E+02
 -1       274-8.81392E+02 1.48427E+01-2.96840E+02 1.23253E+01 6.17820E+00-1.75624E+02
 -1       275-9.71612E+02 9.13162E+00-2.72062E+02 1.33325E+00-4.21687E+00-7.92172E+01
 -1       276-8.00402E+02-1.40600E+02-2.62644E+02-3.78259E+01 2.19112E+01-3.54309E+02
 -1       277-8.60808E+02-1.05930E+01-3.84884E+02-2.11882E+00 3.29669E+00-9.11460E+01
 -1       278-1.28767E+03-1.69185E+01-9.28258E+01 6.83280E+00-3.95465E+00-2.67697E+02
 -1       279-5.37654E+02-8.69506E+01-3.13393E+02-1.84915E+01-6.76820E+00-2.28670E+02
 -1       280-1.06012E+03-1.74273E+02-2.84613E+02 3.45887E+01-4.50833E+00-3.83611E+02
 -3
    1PSTEP                         3           1           1          
  100CL  101 1.000000000         280                     0    1           1
 -4  TOSTRAIN    6    1
 -5  EXX         1    4    1    1
 -5  EYY         1    4    2    2
 -5  EZZ         1    4    3    3
 -5  EXY         1    4    1    2
 -5  EYZ         1    4    2    3
 -5  EZX         1    4    3    1
 -1         1-1.05929E-02 7.72073E-04 1.23531E-03-2.79077E-03-7.92244E-04-3.52730E-03
 -1         2 7.86596E-04 2.53553E-04-8.30713E-04-6.96385E-04-9.20903E-05-2.20409E-03
 -1         3-1.06436E-02 8.07472E-04 1.21336E-03 2.76337E-03 7.62175E-04-3.50748E-03
 -1         4 8.05111E-04 2.00268E-04-7.85128E-04 7.10667E-04 8.46479E-05-2.09763E-03
 -1         5-4.88826E-03 1.40129E-03 1.60702E-03-2.00458E-06 6.66188E-06 2.03723E-04
 -1         6-4.49456E-03 2.18708E-03-6.35264E-04 1.03447E-05-3.03197E-05 2.12028E-04
 -1         7-4.88682E-03 1.40634E-03 1.59876E-03-4.70240E-06-9.64578E-06 1.97124E-04
 -1         8-4.50940E-03 2.18956E-03-6.19681E-04 2.42189E-06 1.26635E-05 2.11687E-04
 -1         9-4.52443E-03 2.82412E-04-4.15305E-05-1.98023E-03 1.63646E-05-2.15708E-03
 -1        10-6.80220E-03-1.00121E-08-2.82897E-09-3.04675E-03-2.64874E-10-2.40234E-03
 -1        11-3.19805E-03-6.11175E-09 3.13878E-10-1.73438E-03-5.84379E-10-2.06760E-03
 -1        12-9.48062E-03 4.55676E-05 4.01413E-04 1.65838E-04 5.63446E-07-4.63284E-03
 -1        13-1.09209E-02-6.01898E-09-1.28652E-08-9.42438E-04 8.87525E-10-5.26667E-03
 -1        14-1.04346E-02-4.61662E-09-1.36566E-08 1.13666E-03-5.14185E-10-5.10075E-03
 -1        15-4.51605E-03 4.56939E-04 8.97207E-05 1.66802E-03-6.80318E-05-2.33096E-03
 -1        16-6.78757E-03-1.05281E-08-1.81532E-09 2.95095E-03 7.78673E-10-2.58492E-03
 -1        17-3.55897E-03-6.51619E-09 1.21796E-10 1.72835E-03 4.35862E-10-2.04704E-03
 -1        18 1.64542E-03-1.20620E-05-6.60501E-04 3.33941E-05 5.48438E-05-2.44856E-03
 -1        19 3.00624E-03-2.39011E-09 7.01304E-09-4.18900E-04 2.75051E-10-3.51334E-03
 -1        20 2.92828E-03-2.44802E-09 8.11970E-09 4.76647E-04 1.27435E-10-3.29751E-03
 -1        21-4.64083E-03 1.76184E-03 4.97830E-04-2.71390E-05-6.52431E-05-3.04227E-04
 -1        22-4.85918E-03 1.53950E-03 1.24516E-03 5.50214E-06-4.91355E-05-4.79774E-05
 -1        23-4.56996E-03 2.04379E-03-2.67537E-04-2.80158E-05-5.31691E-05-6.17015E-05
 -1        24-4.95560E-03 1.64152E-03 1.52629E-03-4.92239E-06-1.00968E-05 2.54789E-04
 -1        25-4.93450E-03 1.54870E-03 1.55357E-03-9.49305E-06 8.51232E-06 1.69643E-04
 -1        26-4.93001E-03 1.51942E-03 1.54678E-03-1.09146E-05-1.24263E-05 1.15367E-04
 -1        27-4.70442E-03 1.79894E-03 5.28554E-04-1.11030E-05 8.97496E-05-2.86297E-04
 -1        28-4.86328E-03 1.55069E-03 1.27194E-03-2.25994E-05 5.44064E-05-4.75634E-05
 -1        29-4.55091E-03 2.04783E-03-2.63037E-04 1.85633E-05 5.42411E-05-4.56738E-05
 -1        30-4.50564E-03 2.25806E-03-5.89862E-04-2.65912E-05 2.22791E-05 1.30391E-04
 -1        31-4.46842E-03 2.21209E-03-5.94785E-04 2.04964E-05-1.11756E-06 9.87927E-05
 -1        32-4.47946E-03 2.19160E-03-5.91335E-04-2.94920E-05 1.43365E-05 1.00661E-04
 -1        33-5.68199E-03 1.80645E-03 1.87422E-03 4.42476E-04 3.13031E-05-2.08844E-04
 -1        34-8.32479E-03 2.12484E-03 2.44925E-03-4.20768E-04-2.75933E-04-9.66726E-04
 -1        35-5.17963E-03 1.52721E-03 1.59573E-03 7.08058E-05-4.39353E-05-1.18985E-04
 -1        36-3.01489E-03 1.67535E-03-9.95900E-04-5.15529E-05 3.51121E-05-2.42591E-04
 -1        37-8.64498E-04 1.05993E-03-1.51517E-03-2.91367E-04 4.66261E-05-7.43198E-04
 -1        38-3.98778E-03 1.99528E-03-6.76545E-04 9.24685E-06-8.96194E-06-6.56172E-05
 -1        39-5.64225E-03 1.83217E-03 1.80607E-03-4.71607E-04-3.88587E-05-7.40966E-05
 -1        40-8.40683E-03 2.22101E-03 2.41494E-03 3.93508E-04 3.39416E-04-9.00834E-04
 -1        41-5.14271E-03 1.51200E-03 1.59120E-03-7.38241E-05 3.73832E-05-8.48265E-05
 -1        42-2.88850E-03 1.65904E-03-1.04814E-03 2.60206E-05 2.79877E-05-2.76928E-04
 -1        43-8.64308E-04 1.02613E-03-1.51282E-03 3.20129E-04 2.27549E-05-6.59504E-04
 -1        44-3.99604E-03 2.00540E-03-6.83536E-04-3.23259E-05 2.37894E-05-5.99682E-05
 -1        45-3.18479E-03 9.36275E-05 1.47936E-05-1.08516E-05 1.24861E-04-2.54992E-03
 -1        46-2.00748E-03 4.82451E-05 1.73988E-05-4.39322E-04-2.95908E-05-2.52367E-03
 -1        47-5.12175E-03 3.76886E-04 1.11332E-04-1.08945E-03-1.55827E-04-3.18157E-03
 -1        48-2.35396E-03-1.12082E-05 1.96788E-04 6.16167E-04-1.19306E-05-2.28225E-03
 -1        49-4.45640E-03-6.11733E-05-6.54762E-05 1.08084E-03-6.33160E-05-2.74393E-03
 -1        50-1.01635E-03 1.25157E-04-2.23171E-04-6.88113E-04-4.90068E-05-2.36370E-03
 -1        51-3.37956E-03-5.71379E-09 1.73760E-10-1.34619E-03-7.13296E-10-2.10212E-03
 -1        52-3.89834E-03-8.93592E-09 1.78782E-04-1.05180E-03-2.57821E-05-2.36134E-03
 -1        53-2.63567E-03 6.54459E-05-5.25609E-05-3.17532E-04 6.44519E-06-2.37919E-03
 -1        54-4.72352E-03 3.09101E-04-1.37929E-04-1.60232E-03 8.55937E-05-2.44741E-03
 -1        55-7.12585E-03 2.64548E-04 3.88074E-04-1.99348E-03-3.26321E-04-3.37151E-03
 -1        56-4.41817E-03 1.66016E-04 1.29857E-04-4.79028E-04-1.47946E-04-2.82342E-03
 -1        57-7.21031E-03 4.19281E-05 2.80082E-04-4.32788E-04 1.61018E-04-3.92736E-03
 -1        58-5.69319E-03 9.45766E-05-1.24320E-08 6.87240E-05-4.22777E-05-3.44137E-03
 -1        59-6.93981E-03-5.44348E-09-1.14486E-08 7.52609E-04-1.20477E-09-3.91008E-03
 -1        60-7.28891E-03 2.15023E-04 3.12509E-04 1.98957E-03 2.63776E-04-3.25725E-03
 -1        61-3.01995E-03-3.17768E-05-9.35491E-05 4.05986E-04-6.26558E-05-2.43476E-03
 -1        62-1.82461E-04-2.59377E-05-2.35657E-04-3.13085E-04 1.30797E-04-2.60287E-03
 -1        63-1.92187E-03-4.23208E-09-6.41327E-10-6.72973E-06-1.28501E-10-2.35056E-03
 -1        64-3.20167E-03 1.60707E-04 4.98314E-05 1.02733E-03 1.05274E-04-2.27937E-03
 -1        65-9.94469E-04 7.00732E-05-1.25951E-04 7.37448E-04 2.79390E-05-2.24164E-03
 -1        66-2.89545E-03-4.84301E-09-8.80541E-10 3.03534E-04-8.78786E-11-2.32810E-03
 -1        67-3.51847E-03-8.11725E-09-6.78082E-05 8.57496E-04-1.21255E-04-2.33746E-03
 -1        68-6.89647E-04 1.66760E-05-1.29279E-04 3.71837E-04-5.63020E-05-2.30033E-03
 -1        69-4.61731E-03-8.84506E-09-2.48120E-09 1.73831E-03 2.70088E-10-2.52821E-03
 -1        70-4.84900E-03 1.94165E-03 5.32040E-04 1.02188E-05 2.56542E-05-2.55572E-04
 -1        71-4.42857E-03 2.05755E-03-3.92672E-04 3.24506E-05-6.38044E-05 3.97286E-06
 -1        72-4.50853E-03 2.08974E-03-3.23171E-04-5.41673E-05 4.98366E-05-9.62600E-05
 -1        73-5.03739E-03 1.66725E-03 1.39471E-03-1.09375E-05 3.60843E-05 9.04150E-06
 -1        74-5.00164E-03 1.62753E-03 1.38277E-03 2.65998E-05-7.62843E-05-1.44142E-05
 -1        75-4.49068E-03 2.17201E-03-4.56509E-04-6.51512E-05 3.75042E-05 1.29703E-06
 -1        76-4.42552E-03 2.11324E-03-5.09249E-04-2.44453E-05 2.15246E-05 5.48496E-05
 -1        77-4.58714E-03 1.95356E-03 2.92073E-07-7.51022E-07 1.00333E-04-1.34217E-04
 -1        78-4.61043E-03 2.12310E-03-1.95430E-04 1.53672E-05 1.28855E-05-9.42280E-05
 -1        79-4.69742E-03 2.04324E-03 3.42990E-05-2.17797E-05 6.12756E-05-1.73437E-04
 -1        80-4.78352E-03 1.88727E-03 5.17654E-04-2.53009E-06 1.05465E-04-2.02193E-04
 -1        81-5.07214E-03 1.65328E-03 1.51919E-03-1.20381E-05 2.34444E-07 5.51362E-05
 -1        82-4.99589E-03 1.52957E-03 1.51610E-03-5.47184E-06 1.88040E-05 8.66346E-05
 -1        83-4.87749E-03 1.71136E-03 1.04367E-03-3.12082E-05 6.51329E-05-1.13270E-04
 -1        84-4.91869E-03 1.82278E-03 1.00030E-03 2.38400E-05 5.30688E-05-1.12543E-04
 -1        85-4.95624E-03 1.76499E-03 1.21299E-03 1.32184E-05 7.63935E-06-3.52527E-05
 -1        86-5.02948E-03 1.65794E-03 1.48140E-03 1.73423E-05-6.28070E-05 1.29401E-04
 -1        87-4.99781E-03 1.50988E-03 1.53978E-03 1.56044E-05-2.06042E-05 6.66723E-05
 -1        88-4.77936E-03 1.67832E-03 9.88338E-04 5.52067E-06-6.64112E-05-1.54637E-04
 -1        89-4.89159E-03 1.76989E-03 1.02660E-03 1.78411E-05-9.85796E-05-1.29546E-04
 -1        90-4.69730E-03 1.82926E-03 4.65949E-04 1.20463E-05-7.30463E-05-2.04158E-04
 -1        91-4.43011E-03 2.18039E-03-5.08074E-04 1.94916E-05-9.83568E-06 3.07186E-05
 -1        92-4.40992E-03 2.10312E-03-5.46152E-04 2.76517E-05-3.61722E-05 8.63939E-05
 -1        93-4.56671E-03 1.96725E-03 1.50046E-06 2.75873E-05-6.93378E-05-9.14663E-05
 -1        94-4.59006E-03 1.93570E-03-1.08772E-05-6.03800E-06-7.87284E-05-1.31765E-04
 -1        95-4.65037E-03 1.99940E-03 5.31840E-04 1.53613E-04 6.68331E-05-2.32163E-03
 -1        96-4.06596E-03 1.88432E-03-2.50442E-04 2.12200E-05-8.20847E-06-8.33036E-04
 -1        97-5.19999E-03 1.69818E-03 1.23486E-03 7.45997E-05-2.51516E-05-7.86468E-04
 -1        98-6.37289E-03 2.37066E-03 1.42749E-03 1.25251E-04 2.57032E-04-2.32335E-03
 -1        99-3.04294E-03 1.57332E-03-3.61372E-04-2.32078E-04 1.32684E-04-2.22878E-03
 -1       100-8.26071E-03 1.97211E-03 1.41475E-03-1.23044E-03-3.75119E-04-2.72915E-03
 -1       101-5.14580E-03 2.04852E-03 3.61209E-04-7.02562E-04 8.06542E-05-2.24526E-03
 -1       102-4.62415E-03 1.69570E-03 3.28097E-04-6.43823E-04 7.86067E-06-2.38164E-03
 -1       103-5.47987E-03 2.22440E-03 1.09843E-03 1.57679E-04 5.92204E-05-2.22239E-03
 -1       104-3.98554E-03 1.80666E-03-9.57339E-06-3.57742E-05 8.04725E-05-2.29402E-03
 -1       105-4.00472E-03 1.01928E-03 4.03548E-05-1.02660E-03 6.09228E-05-2.25423E-03
 -1       106-1.42764E-03 1.06570E-03-7.21098E-04-4.10146E-04-4.69338E-05-2.09484E-03
 -1       107-4.03494E-03 1.72523E-03 8.90786E-05 1.37295E-04 8.42687E-06-1.55115E-03
 -1       108-3.55528E-03 1.77996E-03-6.02226E-04 1.49743E-05 4.68628E-05-6.63793E-04
 -1       109-3.48669E-03 1.66989E-03-3.44976E-04 8.24643E-05 8.83003E-05-1.42705E-03
 -1       110-4.54837E-03 1.73577E-03 5.05152E-04 7.87122E-05-1.46758E-05-1.29040E-03
 -1       111-4.36667E-03 1.83188E-03 8.60513E-05-3.36261E-09-3.65691E-05-5.68045E-04
 -1       112-4.27509E-03 2.04885E-03-4.39226E-04-1.33469E-05-2.08646E-05-2.80208E-04
 -1       113-4.90804E-03 1.70473E-03 9.01631E-04 1.23690E-04-1.09365E-05-1.60224E-03
 -1       114-4.93981E-03 1.71552E-03 9.29823E-04 6.59254E-06-3.68035E-05-5.77347E-04
 -1       115-5.21116E-03 1.69246E-03 1.27755E-03 2.07522E-04-4.51068E-05-1.42676E-03
 -1       116-5.47603E-03 1.70040E-03 1.51476E-03 1.14352E-04-4.42544E-05-6.72990E-04
 -1       117-5.05889E-03 1.56098E-03 1.41055E-03 4.76445E-05-9.05587E-06-2.55809E-04
 -1       118-5.99474E-03 1.92603E-03 1.77265E-03 3.94665E-04 2.24576E-04-1.15193E-03
 -1       119-2.71907E-03 1.50872E-03-8.44939E-04-2.06820E-04 1.02395E-04-1.13215E-03
 -1       120-4.51301E-03 1.78719E-03 4.96978E-04-2.30766E-04-5.29104E-05-2.33853E-03
 -1       121-5.18030E-03 1.66333E-03 1.24876E-03-7.78747E-05 3.67969E-05-7.73427E-04
 -1       122-6.28322E-03 2.45742E-03 1.17774E-03 1.69492E-04-1.82688E-04-2.30871E-03
 -1       123-4.08160E-03 1.90522E-03-2.77896E-04-3.88297E-05-2.90899E-06-7.89073E-04
 -1       124-3.08472E-03 1.67668E-03-3.74024E-04 9.87867E-05-1.63058E-04-2.19777E-03
 -1       125-3.55139E-03 1.78954E-03-6.35450E-04-2.86386E-05 1.37878E-05-5.94082E-04
 -1       126-4.20328E-03 1.81152E-03 1.07938E-04-1.05614E-04-4.27119E-05-1.51168E-03
 -1       127-3.41570E-03 1.68110E-03-3.85961E-04-5.15439E-05 3.52663E-05-1.50668E-03
 -1       128-4.27691E-03 2.04044E-03-4.40491E-04 7.74701E-06 8.34351E-06-2.56504E-04
 -1       129-2.60587E-03 1.51753E-03-8.70490E-04 8.46111E-05-5.70202E-05-1.19423E-03
 -1       130-3.67274E-03 1.63347E-03-5.64941E-05-1.78450E-04-1.68580E-04-2.33223E-03
 -1       131-1.48027E-03 1.06245E-03-6.47556E-04 3.37097E-04 2.56655E-05-1.99272E-03
 -1       132-5.50909E-03 1.66582E-03 1.49237E-03-1.01272E-04 5.47126E-05-6.12097E-04
 -1       133-5.19586E-03 1.69662E-03 1.21660E-03-2.36658E-04 1.84673E-07-1.38917E-03
 -1       134-4.97986E-03 1.69876E-03 8.72547E-04-9.46942E-05-2.09348E-05-1.52071E-03
 -1       135-5.04887E-03 1.53513E-03 1.42420E-03-4.07253E-05 1.70244E-05-2.62852E-04
 -1       136-4.94901E-03 1.71553E-03 9.26950E-04-6.03838E-05 5.27841E-05-5.40055E-04
 -1       137-4.59982E-03 1.74165E-03 5.05069E-04-6.61875E-05-5.59423E-06-1.25611E-03
 -1       138-5.29858E-03 1.50457E-03 4.41645E-04 1.01094E-03-2.20256E-04-2.27465E-03
 -1       139-4.57200E-03 1.65651E-03 3.73833E-04 3.49372E-04-7.92267E-05-2.51190E-03
 -1       140-5.01618E-03 1.90995E-03 9.88801E-04-1.80152E-04-4.92593E-05-2.37512E-03
 -1       141-8.29611E-03 2.11784E-03 1.30381E-03 1.34677E-03 3.22132E-04-2.65545E-03
 -1       142-5.84774E-03 2.20404E-03 1.76803E-03-5.41138E-04-3.16861E-04-9.71861E-04
 -1       143-4.36595E-03 1.84174E-03 9.75118E-05-1.91454E-05 3.61138E-05-5.63248E-04
 -1       144-4.07060E-03 1.36605E-03 6.59727E-05 7.16085E-04-1.49169E-06-2.28396E-03
 -1       145-6.91967E-03 2.07033E-03 2.43328E-03-2.30952E-05-2.54511E-05-1.83299E-04
 -1       146-8.68446E-03 2.08711E-03 2.95239E-03 3.37414E-04 2.03130E-05-1.10197E-03
 -1       147-5.20244E-03 1.66994E-03 1.56875E-03-1.08363E-04 3.68680E-06-2.99732E-05
 -1       148-5.16890E-03 1.68601E-03 1.49436E-03 1.14107E-04-1.25178E-05 2.58476E-06
 -1       149-8.46441E-03 2.15208E-03 3.29478E-03-3.12621E-04-3.15035E-05 1.35881E-04
 -1       150-9.06414E-03 9.24794E-04 2.83092E-03 5.12922E-05-8.63915E-06-1.79622E-03
 -1       151-9.91954E-03 1.64246E-03 2.59172E-03-1.46904E-03-4.57670E-04-1.79504E-03
 -1       152-8.27173E-03 1.21220E-03 2.16340E-03 8.41453E-05-5.91075E-05-1.87431E-03
 -1       153-9.17730E-03 1.07937E-03 1.95644E-03 1.53197E-04-1.23891E-05-2.90725E-03
 -1       154-7.74444E-03 2.04887E-03 2.63684E-03-8.49539E-06-8.78170E-05-7.45331E-04
 -1       155-7.65350E-03 2.07435E-03 2.99354E-03 1.59649E-04-1.24607E-04 3.71511E-04
 -1       156-9.79211E-03 1.48660E-03 2.74243E-03 1.31393E-03 4.60283E-04-2.04276E-03
 -1       157-6.49410E-03 2.26971E-03 2.11348E-03 2.32800E-04 3.01608E-04 8.29748E-05
 -1       158-7.02429E-03 2.17361E-03 2.24206E-03-2.22447E-04-1.41654E-04-2.12215E-04
 -1       159-6.06243E-03 1.82905E-03 1.86429E-03-2.47576E-04 7.32609E-05-2.49149E-04
 -1       160-5.41511E-03 1.69156E-03 1.60610E-03-1.57138E-04 5.58481E-05-1.60350E-04
 -1       161-5.54203E-03 1.79368E-03 1.76507E-03-1.22674E-04 1.04757E-05-6.49507E-05
 -1       162-4.98826E-03 1.55416E-03 1.50638E-03-4.60309E-05-5.66954E-06 8.03230E-05
 -1       163-5.06587E-03 1.63824E-03 1.54037E-03-7.06689E-05-1.86643E-05 8.08405E-05
 -1       164-5.31348E-03 1.75904E-03 1.64440E-03-1.14855E-05-2.42705E-05 8.74891E-05
 -1       165-5.03420E-03 1.67852E-03 1.44983E-03 7.15844E-05 3.63796E-07 1.28858E-04
 -1       166-5.57309E-03 1.86732E-03 1.69016E-03 7.67604E-05-3.21985E-05-2.04508E-05
 -1       167-5.51014E-03 1.69475E-03 1.68261E-03 1.45057E-04-5.40048E-05-2.11370E-04
 -1       168-6.20331E-03 1.89306E-03 1.97671E-03 2.59642E-04-8.49440E-05-6.77238E-05
 -1       169-4.97255E-03 1.53820E-03 1.50484E-03 3.56376E-05-3.91058E-06 8.18460E-05
 -1       170-3.00232E-03 1.63334E-03-1.05900E-03-3.31802E-05-2.60803E-05-3.90082E-04
 -1       171-4.27974E-03 2.00681E-03-5.19773E-04-2.26041E-05 7.37105E-06-8.03060E-06
 -1       172-4.11649E-03 2.01224E-03-6.66583E-04 7.05304E-05-2.21579E-06-3.47925E-05
 -1       173-6.34772E-04 9.35518E-04-1.86736E-03 3.07759E-04-3.41509E-05-4.44948E-04
 -1       174-8.24798E-04 9.38860E-04-1.81909E-03-3.72837E-04 7.15769E-06-4.07964E-05
 -1       175-2.12719E-03 1.33925E-03-1.26259E-03 1.64471E-04 4.72766E-06-2.49457E-04
 -1       176 5.06859E-04 5.97781E-04-1.63667E-03 4.11709E-04-3.47151E-06-1.19705E-03
 -1       177-2.10455E-03 1.30859E-03-1.28875E-03 2.36701E-04 9.63638E-06-3.76876E-04
 -1       178-3.17894E-03 1.68125E-03-9.71124E-04 4.27843E-05 1.42639E-05-2.83901E-04
 -1       179-3.76562E-03 1.87120E-03-7.03642E-04-4.58695E-05 1.68658E-05-1.68958E-04
 -1       180-4.43368E-03 2.10080E-03-5.33628E-04-1.89208E-05 6.91022E-06 8.54749E-05
 -1       181-3.84045E-03 1.83341E-03-6.19524E-04 3.67711E-05-9.89824E-06-1.32552E-04
 -1       182-3.66713E-03 1.86502E-03-8.19968E-04-1.67488E-05-1.11824E-05-1.45047E-04
 -1       183-3.68149E-03 1.80602E-03-8.68873E-04 7.34182E-06-6.35925E-05-2.78646E-04
 -1       184-2.93950E-03 1.61752E-03-1.00343E-03-6.00343E-05-8.91166E-05-2.57032E-04
 -1       185-4.42507E-03 2.09726E-03-5.32023E-04 5.95681E-05-2.55066E-05 9.22965E-05
 -1       186-4.41226E-03 2.15619E-03-5.61670E-04 6.04452E-06 4.26616E-05 5.05530E-07
 -1       187-4.05017E-03 1.96854E-03-6.29793E-04-1.71322E-05-4.21916E-05-1.61327E-04
 -1       188 8.02578E-04 4.53341E-04-1.58446E-03 4.18414E-04-7.45276E-05-1.28909E-03
 -1       189-4.94135E-04 8.90934E-04-1.42138E-03-5.29842E-05 1.57838E-04-1.04621E-03
 -1       190-2.21493E-03 1.29790E-03-1.12709E-03-1.55518E-04 2.57421E-05-1.17497E-04
 -1       191-1.94913E-03 1.31412E-03-1.53844E-03-2.88064E-04-5.10825E-05 1.03348E-04
 -1       192 4.41407E-04 5.98264E-04-1.51214E-03-4.08472E-04-1.33206E-05-1.14113E-03
 -1       193 9.28179E-04 5.14016E-04-1.50701E-03-3.34993E-04 2.41205E-05-1.32243E-03
 -1       194-4.40701E-03 2.10508E-03-5.05498E-04-3.10635E-05-4.88248E-06 2.07717E-05
 -1       195-4.10312E-03 1.55738E-03 7.03819E-05 6.49402E-05-5.31957E-05-2.39543E-03
 -1       196-5.41252E-03 1.92852E-03 1.02622E-03 1.02852E-04 2.42662E-05-1.47171E-03
 -1       197-5.72653E-03 1.57011E-03 7.16217E-04-4.94594E-04 4.06703E-05-2.74542E-03
 -1       198-5.11492E-03 1.46767E-03 5.82332E-04-4.03897E-04-6.41244E-05-2.52857E-03
 -1       199-5.88197E-03 1.95454E-03 1.32769E-03 6.43611E-05 1.48475E-04-1.86035E-03
 -1       200-5.06109E-03 1.92631E-03 7.31005E-04 1.31448E-04 7.01331E-05-1.95652E-03
 -1       201-5.39127E-03 1.37657E-03 9.52278E-04-3.10495E-04-1.04076E-04-2.28567E-03
 -1       202-5.64462E-03 1.79411E-03 1.62197E-03-1.00447E-04 3.95850E-05-5.13437E-04
 -1       203-5.20951E-03 1.67072E-03 1.43293E-03-8.10895E-05 3.13770E-05-3.82701E-04
 -1       204-5.32008E-03 1.75922E-03 1.14882E-03-4.41501E-05 4.33948E-05-9.85253E-04
 -1       205-5.40228E-03 1.77687E-03 1.31739E-03-4.93846E-05 1.26778E-05-6.03608E-04
 -1       206-6.16588E-03 1.98429E-03 1.67295E-03 1.55152E-05 9.56078E-06-8.71009E-04
 -1       207-4.97922E-03 1.78771E-03 9.42304E-04-4.42186E-05 5.11711E-05-4.91208E-04
 -1       208-5.08378E-03 1.65854E-03 1.30847E-03-6.41104E-05 3.30204E-05-3.58729E-04
 -1       209-4.03434E-03 1.89671E-03-5.13750E-04-4.03873E-05-2.80857E-06-3.02842E-04
 -1       210-4.36530E-03 2.04355E-03-4.17524E-04-5.88822E-05 5.94933E-06-9.87048E-05
 -1       211-4.42462E-03 1.99193E-03-1.60881E-04 5.78132E-05 7.87209E-06-2.12289E-04
 -1       212-4.34806E-03 2.04900E-03-4.63065E-04 7.76590E-05-1.44467E-05-6.11648E-05
 -1       213-2.60334E-03 1.41398E-03-8.42288E-04-1.46023E-04 7.74738E-05-1.29026E-03
 -1       214-1.77955E-03 1.21874E-03-1.06734E-03-3.05490E-04 8.64146E-05-1.30709E-03
 -1       215-6.74463E-03 1.23928E-03 1.73991E-03-7.14699E-04-9.61095E-05-1.68571E-03
 -1       216-6.63284E-03 1.37087E-03 1.53021E-03-4.03309E-04-4.04682E-05-1.76050E-03
 -1       217-4.54918E-03 1.93498E-03 1.04279E-04-5.31121E-05 1.01688E-05-5.32670E-04
 -1       218-4.32621E-03 1.99696E-03-2.88772E-04-2.59714E-05 2.21235E-05-4.30000E-04
 -1       219-4.77235E-03 1.82915E-03 5.51413E-04-8.73965E-05 6.26075E-06-1.12818E-03
 -1       220-5.05133E-03 1.78141E-03 7.85721E-04-7.21324E-05-9.29030E-06-1.71798E-03
 -1       221-5.02773E-03 1.88029E-03 8.07120E-04 4.39542E-05 1.82511E-05-8.39578E-04
 -1       222-4.13733E-03 1.87890E-03-2.68005E-04-5.05858E-05 2.70282E-06-5.02527E-04
 -1       223-4.43072E-03 1.91239E-03 4.15722E-05 8.13410E-05 1.33747E-05-9.21273E-04
 -1       224-4.10737E-03 1.75909E-03-1.01491E-04-2.31056E-06-5.32685E-06-1.27014E-03
 -1       225-3.58183E-03 1.67092E-03-3.47438E-04 1.72335E-05 3.92538E-05-1.43676E-03
 -1       226-3.64531E-03 1.35432E-03-4.52514E-05-1.56189E-04 4.89478E-05-2.09767E-03
 -1       227-4.50536E-03 1.66472E-03 2.46078E-04-4.17799E-05-6.57897E-06-2.23562E-03
 -1       228-3.33337E-03 1.53465E-03-5.38380E-04-7.77582E-06-2.17991E-05-1.37371E-03
 -1       229-5.57561E-03 1.26100E-03 1.37331E-03 3.17498E-05 1.35851E-04-1.68975E-03
 -1       230-4.65801E-03 1.30499E-03 5.93811E-04 1.06254E-04 1.10411E-04-2.25680E-03
 -1       231-3.93948E-03 1.74784E-03-1.25140E-04 1.40513E-05-4.78116E-05-1.52626E-03
 -1       232-4.53252E-03 1.77035E-03 3.19562E-04 1.31230E-05-3.06848E-05-1.32242E-03
 -1       233-4.34141E-03 1.74159E-03 2.13685E-04-1.21138E-04-6.83636E-05-2.42185E-03
 -1       234-4.30013E-03 1.30544E-03 4.65858E-04-8.49405E-05 8.85379E-05-2.39398E-03
 -1       235-5.70049E-03 1.83760E-03 1.39442E-03-1.42042E-04-8.49060E-06-1.33436E-03
 -1       236-5.82947E-03 1.83859E-03 1.21044E-03-7.32575E-05-1.12517E-04-1.73569E-03
 -1       237-3.81309E-03 8.61048E-04 9.35308E-05 9.37229E-05 1.12589E-04-2.51319E-03
 -1       238-4.85120E-03 1.72596E-03 4.68877E-04 7.75045E-05-3.00324E-05-2.14801E-03
 -1       239-5.11383E-03 1.64678E-03 1.41246E-03 7.28389E-05-5.00989E-05-3.60814E-05
 -1       240-5.20091E-03 1.75535E-03 1.25781E-03-3.73286E-06 2.41272E-05-4.33132E-04
 -1       241-5.17578E-03 1.76869E-03 1.18399E-03 3.82696E-05-4.80909E-05-6.03733E-04
 -1       242-5.38193E-03 1.81278E-03 1.30059E-03 9.04273E-05 1.88813E-06-6.23334E-04
 -1       243-5.09248E-03 1.65549E-03 1.29685E-03 6.08275E-05-3.01635E-05-3.89270E-04
 -1       244-4.94508E-03 1.84016E-03 7.15325E-04 4.91920E-05-3.82334E-05-8.42160E-04
 -1       245-5.33506E-03 1.83323E-03 1.12062E-03 1.16689E-04-4.26644E-05-1.04160E-03
 -1       246-5.18182E-03 1.68112E-03 1.38391E-03 8.50096E-05-3.08205E-05-3.75657E-04
 -1       247-5.76593E-03 1.81911E-03 1.47666E-03 2.14638E-04-8.07811E-05-8.90356E-04
 -1       248-1.83420E-03 1.24492E-03-1.09692E-03 2.56739E-04-9.44329E-05-1.41592E-03
 -1       249-3.64730E-03 1.57971E-03-2.19694E-04 1.65875E-04-2.03567E-04-2.27534E-03
 -1       250-2.39780E-03 1.25873E-03-8.02578E-04 1.34835E-04-3.16504E-05-1.50321E-03
 -1       251-3.25591E-03 1.58277E-03-5.39522E-04 8.90936E-05-4.29415E-05-1.32767E-03
 -1       252-2.77844E-03 9.55448E-04 1.83197E-05 4.33668E-04-1.08588E-04-2.28188E-03
 -1       253-4.26262E-03 1.24112E-03 1.79618E-04 6.89497E-04-6.97870E-05-2.41351E-03
 -1       254-3.29010E-03 8.40118E-04 1.86860E-04 3.21723E-04-2.58547E-05-2.34927E-03
 -1       255-1.44074E-03 4.33012E-04-9.34552E-04 4.67193E-04-3.33919E-05-1.40600E-03
 -1       256-1.72837E-03 7.59793E-04-3.51848E-04 5.51038E-05 1.68681E-06-2.12157E-03
 -1       257-4.98949E-03 1.89588E-03 6.24684E-04 1.69515E-04-3.44773E-05-2.46391E-03
 -1       258-4.60144E-03 1.88322E-03 3.30115E-04 6.30268E-05-1.34139E-05-1.25168E-03
 -1       259-3.04197E-03 7.19870E-04-1.73738E-05-1.78790E-04-1.52367E-05-2.23416E-03
 -1       260-5.57259E-03 1.40574E-03 4.67524E-04 6.08300E-04-1.46952E-04-2.56837E-03
 -1       261-6.85499E-03 9.73497E-04 1.73943E-03 7.08746E-04 3.39945E-05-1.97605E-03
 -1       262-5.10990E-03 1.64486E-03 1.45682E-03-4.61633E-05 1.63885E-05-5.48570E-05
 -1       263-4.07480E-03 1.95560E-03-4.72963E-04 5.15729E-05-1.14585E-05-4.19833E-04
 -1       264-1.41283E-03 4.85814E-04-9.02104E-04-3.72338E-04-2.89932E-05-1.38977E-03
 -1       265-7.57531E-03 2.22785E-03 2.12067E-03-8.53802E-05 3.06535E-04-1.32375E-03
 -1       266-2.59446E-03 9.10251E-04-1.36785E-04-3.71129E-04 5.54108E-05-2.38519E-03
 -1       267-4.18294E-03 1.96357E-03-4.18303E-04-2.02953E-05 2.80045E-05-3.71405E-04
 -1       268-7.61190E-03 2.23277E-03 2.03347E-03 3.00144E-04-1.40403E-04-1.74330E-03
 -1       269-4.27585E-03 1.98261E-03-3.17336E-04-3.21053E-06-3.64778E-05-3.97322E-04
 -1       270-5.05009E-03 1.76844E-03 1.14955E-03-5.16792E-05 2.58093E-05-2.14642E-04
 -1       271-5.81302E-03 1.02449E-03 1.29113E-03 2.96096E-04 1.77744E-04-2.08730E-03
 -1       272-6.06061E-03 1.80149E-03 1.23479E-03 2.51507E-04-6.10747E-05-2.02594E-03
 -1       273-6.97273E-03 2.02621E-03 2.07491E-03 1.07311E-04 2.03187E-04-1.11285E-03
 -1       274-3.98396E-03 1.84156E-03-1.84375E-04 8.01141E-05 4.01583E-05-1.14156E-03
 -1       275-4.46367E-03 1.91117E-03 8.34130E-05 8.66612E-06-2.74096E-05-5.14912E-04
 -1       276-3.39714E-03 8.91568E-04 9.82829E-05-2.45868E-04 1.42423E-04-2.30301E-03
 -1       277-3.71083E-03 1.81557E-03-6.17317E-04-1.37723E-05 2.14285E-05-5.92449E-04
 -1       278-6.27375E-03 1.98616E-03 1.49276E-03 4.44132E-05-2.57052E-05-1.74003E-03
 -1       279-2.08776E-03 8.41817E-04-6.30056E-04-1.20195E-04-4.39933E-05-1.48635E-03
 -1       280-4.61228E-03 1.14574E-03 4.28530E-04 2.24827E-04-2.93042E-05-2.49347E-03
 -3
 9999
