    1C
    1UUSER                                                              
    1UDATE              07.february.2018                                
    1UTIME              13:19:12                                        
    1UHOST                                                              
    1UPGM               CalculiX                                        
    1UVERSION           Version 2.11                             
    1UCOMPILETIME       So 31. Jul 13:26:31 CEST 2016                    
    1UDIR                                                               
    1UDBN                                                               
    1UMAT    1MECHANICALMATERIAL                                        
    2C                           280                                     1
 -1         1 0.00000E+00 0.00000E+00 0.00000E+00
 -1         2 0.00000E+00 0.00000E+00 1.00000E+01
 -1         3 0.00000E+00 1.00000E+01 0.00000E+00
 -1         4 0.00000E+00 1.00000E+01 1.00000E+01
 -1         5 1.00000E+01 0.00000E+00 0.00000E+00
 -1         6 1.00000E+01 0.00000E+00 1.00000E+01
 -1         7 1.00000E+01 1.00000E+01 0.00000E+00
 -1         8 1.00000E+01 1.00000E+01 1.00000E+01
 -1         9 0.00000E+00 0.00000E+00 5.00000E+00
 -1        10 0.00000E+00 0.00000E+00 2.50000E+00
 -1        11 0.00000E+00 0.00000E+00 7.50000E+00
 -1        12 0.00000E+00 5.00000E+00 0.00000E+00
 -1        13 0.00000E+00 2.50000E+00 0.00000E+00
 -1        14 0.00000E+00 7.50000E+00 0.00000E+00
 -1        15 0.00000E+00 1.00000E+01 5.00000E+00
 -1        16 0.00000E+00 1.00000E+01 2.50000E+00
 -1        17 0.00000E+00 1.00000E+01 7.50000E+00
 -1        18 0.00000E+00 5.00000E+00 1.00000E+01
 -1        19 0.00000E+00 2.50000E+00 1.00000E+01
 -1        20 0.00000E+00 7.50000E+00 1.00000E+01
 -1        21 1.00000E+01 0.00000E+00 5.00000E+00
 -1        22 1.00000E+01 0.00000E+00 2.50000E+00
 -1        23 1.00000E+01 0.00000E+00 7.50000E+00
 -1        24 1.00000E+01 5.00000E+00 0.00000E+00
 -1        25 1.00000E+01 2.50000E+00 0.00000E+00
 -1        26 1.00000E+01 7.50000E+00 0.00000E+00
 -1        27 1.00000E+01 1.00000E+01 5.00000E+00
 -1        28 1.00000E+01 1.00000E+01 2.50000E+00
 -1        29 1.00000E+01 1.00000E+01 7.50000E+00
 -1        30 1.00000E+01 5.00000E+00 1.00000E+01
 -1        31 1.00000E+01 2.50000E+00 1.00000E+01
 -1        32 1.00000E+01 7.50000E+00 1.00000E+01
 -1        33 5.00000E+00 0.00000E+00 0.00000E+00
 -1        34 2.50000E+00 0.00000E+00 0.00000E+00
 -1        35 7.50000E+00 0.00000E+00 0.00000E+00
 -1        36 5.00000E+00 0.00000E+00 1.00000E+01
 -1        37 2.50000E+00 0.00000E+00 1.00000E+01
 -1        38 7.50000E+00 0.00000E+00 1.00000E+01
 -1        39 5.00000E+00 1.00000E+01 0.00000E+00
 -1        40 2.50000E+00 1.00000E+01 0.00000E+00
 -1        41 7.50000E+00 1.00000E+01 0.00000E+00
 -1        42 5.00000E+00 1.00000E+01 1.00000E+01
 -1        43 2.50000E+00 1.00000E+01 1.00000E+01
 -1        44 7.50000E+00 1.00000E+01 1.00000E+01
 -1        45 0.00000E+00 5.00000E+00 5.00000E+00
 -1        46 0.00000E+00 2.50000E+00 7.50000E+00
 -1        47 0.00000E+00 2.50000E+00 2.50000E+00
 -1        48 0.00000E+00 7.50000E+00 7.50000E+00
 -1        49 0.00000E+00 7.50000E+00 2.50000E+00
 -1        50 0.00000E+00 1.25000E+00 8.75000E+00
 -1        51 0.00000E+00 1.25000E+00 6.25000E+00
 -1        52 0.00000E+00 2.50000E+00 5.00000E+00
 -1        53 0.00000E+00 3.75000E+00 6.25000E+00
 -1        54 0.00000E+00 1.25000E+00 3.75000E+00
 -1        55 0.00000E+00 1.25000E+00 1.25000E+00
 -1        56 0.00000E+00 3.75000E+00 3.75000E+00
 -1        57 0.00000E+00 3.75000E+00 1.25000E+00
 -1        58 0.00000E+00 5.00000E+00 2.50000E+00
 -1        59 0.00000E+00 6.25000E+00 1.25000E+00
 -1        60 0.00000E+00 8.75000E+00 1.25000E+00
 -1        61 0.00000E+00 6.25000E+00 3.75000E+00
 -1        62 0.00000E+00 3.75000E+00 8.75000E+00
 -1        63 0.00000E+00 5.00000E+00 7.50000E+00
 -1        64 0.00000E+00 8.75000E+00 6.25000E+00
 -1        65 0.00000E+00 8.75000E+00 8.75000E+00
 -1        66 0.00000E+00 6.25000E+00 6.25000E+00
 -1        67 0.00000E+00 7.50000E+00 5.00000E+00
 -1        68 0.00000E+00 6.25000E+00 8.75000E+00
 -1        69 0.00000E+00 8.75000E+00 3.75000E+00
 -1        70 1.00000E+01 5.00000E+00 5.00000E+00
 -1        71 1.00000E+01 2.50000E+00 7.50000E+00
 -1        72 1.00000E+01 7.50000E+00 7.50000E+00
 -1        73 1.00000E+01 7.50000E+00 2.50000E+00
 -1        74 1.00000E+01 2.50000E+00 2.50000E+00
 -1        75 1.00000E+01 6.25000E+00 8.75000E+00
 -1        76 1.00000E+01 8.75000E+00 8.75000E+00
 -1        77 1.00000E+01 8.75000E+00 6.25000E+00
 -1        78 1.00000E+01 5.00000E+00 7.50000E+00
 -1        79 1.00000E+01 6.25000E+00 6.25000E+00
 -1        80 1.00000E+01 7.50000E+00 5.00000E+00
 -1        81 1.00000E+01 6.25000E+00 1.25000E+00
 -1        82 1.00000E+01 8.75000E+00 1.25000E+00
 -1        83 1.00000E+01 8.75000E+00 3.75000E+00
 -1        84 1.00000E+01 6.25000E+00 3.75000E+00
 -1        85 1.00000E+01 5.00000E+00 2.50000E+00
 -1        86 1.00000E+01 3.75000E+00 1.25000E+00
 -1        87 1.00000E+01 1.25000E+00 1.25000E+00
 -1        88 1.00000E+01 1.25000E+00 3.75000E+00
 -1        89 1.00000E+01 3.75000E+00 3.75000E+00
 -1        90 1.00000E+01 2.50000E+00 5.00000E+00
 -1        91 1.00000E+01 3.75000E+00 8.75000E+00
 -1        92 1.00000E+01 1.25000E+00 8.75000E+00
 -1        93 1.00000E+01 3.75000E+00 6.25000E+00
 -1        94 1.00000E+01 1.25000E+00 6.25000E+00
 -1        95 5.00000E+00 0.00000E+00 5.00000E+00
 -1        96 7.50000E+00 0.00000E+00 7.50000E+00
 -1        97 7.50000E+00 0.00000E+00 2.50000E+00
 -1        98 2.50000E+00 0.00000E+00 2.50000E+00
 -1        99 2.50000E+00 0.00000E+00 7.50000E+00
 -1       100 1.25000E+00 0.00000E+00 1.25000E+00
 -1       101 1.25000E+00 0.00000E+00 3.75000E+00
 -1       102 2.50000E+00 0.00000E+00 5.00000E+00
 -1       103 3.75000E+00 0.00000E+00 3.75000E+00
 -1       104 3.75000E+00 0.00000E+00 6.25000E+00
 -1       105 1.25000E+00 0.00000E+00 6.25000E+00
 -1       106 1.25000E+00 0.00000E+00 8.75000E+00
 -1       107 6.25000E+00 0.00000E+00 6.25000E+00
 -1       108 6.25000E+00 0.00000E+00 8.75000E+00
 -1       109 5.00000E+00 0.00000E+00 7.50000E+00
 -1       110 7.50000E+00 0.00000E+00 5.00000E+00
 -1       111 8.75000E+00 0.00000E+00 6.25000E+00
 -1       112 8.75000E+00 0.00000E+00 8.75000E+00
 -1       113 6.25000E+00 0.00000E+00 3.75000E+00
 -1       114 8.75000E+00 0.00000E+00 3.75000E+00
 -1       115 5.00000E+00 0.00000E+00 2.50000E+00
 -1       116 6.25000E+00 0.00000E+00 1.25000E+00
 -1       117 8.75000E+00 0.00000E+00 1.25000E+00
 -1       118 3.75000E+00 0.00000E+00 1.25000E+00
 -1       119 3.75000E+00 0.00000E+00 8.75000E+00
 -1       120 5.00000E+00 1.00000E+01 5.00000E+00
 -1       121 7.50000E+00 1.00000E+01 2.50000E+00
 -1       122 2.50000E+00 1.00000E+01 2.50000E+00
 -1       123 7.50000E+00 1.00000E+01 7.50000E+00
 -1       124 2.50000E+00 1.00000E+01 7.50000E+00
 -1       125 6.25000E+00 1.00000E+01 8.75000E+00
 -1       126 6.25000E+00 1.00000E+01 6.25000E+00
 -1       127 5.00000E+00 1.00000E+01 7.50000E+00
 -1       128 8.75000E+00 1.00000E+01 8.75000E+00
 -1       129 3.75000E+00 1.00000E+01 8.75000E+00
 -1       130 3.75000E+00 1.00000E+01 6.25000E+00
 -1       131 1.25000E+00 1.00000E+01 8.75000E+00
 -1       132 6.25000E+00 1.00000E+01 1.25000E+00
 -1       133 5.00000E+00 1.00000E+01 2.50000E+00
 -1       134 6.25000E+00 1.00000E+01 3.75000E+00
 -1       135 8.75000E+00 1.00000E+01 1.25000E+00
 -1       136 8.75000E+00 1.00000E+01 3.75000E+00
 -1       137 7.50000E+00 1.00000E+01 5.00000E+00
 -1       138 1.25000E+00 1.00000E+01 3.75000E+00
 -1       139 2.50000E+00 1.00000E+01 5.00000E+00
 -1       140 3.75000E+00 1.00000E+01 3.75000E+00
 -1       141 1.25000E+00 1.00000E+01 1.25000E+00
 -1       142 3.75000E+00 1.00000E+01 1.25000E+00
 -1       143 8.75000E+00 1.00000E+01 6.25000E+00
 -1       144 1.25000E+00 1.00000E+01 6.25000E+00
 -1       145 5.00000E+00 5.00000E+00 0.00000E+00
 -1       146 2.50000E+00 7.50000E+00 0.00000E+00
 -1       147 7.50000E+00 7.50000E+00 0.00000E+00
 -1       148 7.50000E+00 2.50000E+00 0.00000E+00
 -1       149 2.50000E+00 2.50000E+00 0.00000E+00
 -1       150 1.25000E+00 3.75000E+00 0.00000E+00
 -1       151 1.25000E+00 1.25000E+00 0.00000E+00
 -1       152 2.50000E+00 5.00000E+00 0.00000E+00
 -1       153 1.25000E+00 6.25000E+00 0.00000E+00
 -1       154 3.75000E+00 6.25000E+00 0.00000E+00
 -1       155 3.75000E+00 3.75000E+00 0.00000E+00
 -1       156 1.25000E+00 8.75000E+00 0.00000E+00
 -1       157 3.75000E+00 1.25000E+00 0.00000E+00
 -1       158 3.75000E+00 8.75000E+00 0.00000E+00
 -1       159 5.00000E+00 7.50000E+00 0.00000E+00
 -1       160 6.25000E+00 8.75000E+00 0.00000E+00
 -1       161 6.25000E+00 6.25000E+00 0.00000E+00
 -1       162 8.75000E+00 8.75000E+00 0.00000E+00
 -1       163 8.75000E+00 6.25000E+00 0.00000E+00
 -1       164 7.50000E+00 5.00000E+00 0.00000E+00
 -1       165 8.75000E+00 3.75000E+00 0.00000E+00
 -1       166 6.25000E+00 3.75000E+00 0.00000E+00
 -1       167 6.25000E+00 1.25000E+00 0.00000E+00
 -1       168 5.00000E+00 2.50000E+00 0.00000E+00
 -1       169 8.75000E+00 1.25000E+00 0.00000E+00
 -1       170 5.00000E+00 5.00000E+00 1.00000E+01
 -1       171 7.50000E+00 7.50000E+00 1.00000E+01
 -1       172 7.50000E+00 2.50000E+00 1.00000E+01
 -1       173 2.50000E+00 7.50000E+00 1.00000E+01
 -1       174 2.50000E+00 2.50000E+00 1.00000E+01
 -1       175 3.75000E+00 8.75000E+00 1.00000E+01
 -1       176 1.25000E+00 8.75000E+00 1.00000E+01
 -1       177 3.75000E+00 6.25000E+00 1.00000E+01
 -1       178 5.00000E+00 7.50000E+00 1.00000E+01
 -1       179 6.25000E+00 8.75000E+00 1.00000E+01
 -1       180 8.75000E+00 8.75000E+00 1.00000E+01
 -1       181 6.25000E+00 6.25000E+00 1.00000E+01
 -1       182 6.25000E+00 1.25000E+00 1.00000E+01
 -1       183 6.25000E+00 3.75000E+00 1.00000E+01
 -1       184 5.00000E+00 2.50000E+00 1.00000E+01
 -1       185 8.75000E+00 1.25000E+00 1.00000E+01
 -1       186 8.75000E+00 3.75000E+00 1.00000E+01
 -1       187 7.50000E+00 5.00000E+00 1.00000E+01
 -1       188 1.25000E+00 6.25000E+00 1.00000E+01
 -1       189 2.50000E+00 5.00000E+00 1.00000E+01
 -1       190 3.75000E+00 1.25000E+00 1.00000E+01
 -1       191 3.75000E+00 3.75000E+00 1.00000E+01
 -1       192 1.25000E+00 1.25000E+00 1.00000E+01
 -1       193 1.25000E+00 3.75000E+00 1.00000E+01
 -1       194 8.75000E+00 6.25000E+00 1.00000E+01
 -1       195 3.75000E+00 6.25000E+00 6.25000E+00
 -1       196 6.25000E+00 3.75000E+00 3.75000E+00
 -1       197 1.25000E+00 1.25000E+00 2.50000E+00
 -1       198 2.50000E+00 1.25000E+00 3.75000E+00
 -1       199 4.37500E+00 1.87500E+00 3.12500E+00
 -1       200 5.62500E+00 1.87500E+00 4.37500E+00
 -1       201 3.12500E+00 3.12500E+00 3.12500E+00
 -1       202 6.25000E+00 7.50000E+00 1.25000E+00
 -1       203 7.50000E+00 8.75000E+00 1.25000E+00
 -1       204 6.87500E+00 6.87500E+00 3.12500E+00
 -1       205 6.87500E+00 5.62500E+00 1.87500E+00
 -1       206 5.62500E+00 4.37500E+00 1.87500E+00
 -1       207 8.75000E+00 7.50000E+00 3.75000E+00
 -1       208 8.75000E+00 8.75000E+00 2.50000E+00
 -1       209 7.50000E+00 6.25000E+00 8.75000E+00
 -1       210 8.75000E+00 7.50000E+00 8.75000E+00
 -1       211 8.75000E+00 3.75000E+00 7.50000E+00
 -1       212 8.75000E+00 2.50000E+00 8.75000E+00
 -1       213 3.75000E+00 2.50000E+00 8.75000E+00
 -1       214 2.50000E+00 1.25000E+00 8.75000E+00
 -1       215 1.25000E+00 2.50000E+00 1.25000E+00
 -1       216 2.50000E+00 3.75000E+00 1.25000E+00
 -1       217 8.75000E+00 7.50000E+00 6.25000E+00
 -1       218 8.75000E+00 8.75000E+00 7.50000E+00
 -1       219 7.50000E+00 7.50000E+00 5.00000E+00
 -1       220 5.62500E+00 6.87500E+00 4.37500E+00
 -1       221 8.12500E+00 4.37500E+00 4.37500E+00
 -1       222 7.50000E+00 5.00000E+00 7.50000E+00
 -1       223 6.87500E+00 3.12500E+00 6.87500E+00
 -1       224 5.62500E+00 4.37500E+00 6.87500E+00
 -1       225 5.00000E+00 2.50000E+00 7.50000E+00
 -1       226 3.12500E+00 3.12500E+00 6.87500E+00
 -1       227 4.37500E+00 3.12500E+00 5.62500E+00
 -1       228 4.37500E+00 5.62500E+00 8.12500E+00
 -1       229 2.50000E+00 5.00000E+00 2.50000E+00
 -1       230 3.12500E+00 4.37500E+00 4.37500E+00
 -1       231 5.62500E+00 8.12500E+00 6.87500E+00
 -1       232 6.87500E+00 5.62500E+00 5.62500E+00
 -1       233 4.37500E+00 8.12500E+00 5.62500E+00
 -1       234 2.50000E+00 2.50000E+00 5.00000E+00
 -1       235 5.00000E+00 7.50000E+00 2.50000E+00
 -1       236 4.37500E+00 5.62500E+00 3.12500E+00
 -1       237 1.87500E+00 5.62500E+00 5.62500E+00
 -1       238 5.00000E+00 5.00000E+00 5.00000E+00
 -1       239 8.75000E+00 2.50000E+00 1.25000E+00
 -1       240 8.12500E+00 4.37500E+00 1.87500E+00
 -1       241 8.12500E+00 3.12500E+00 3.12500E+00
 -1       242 6.87500E+00 3.12500E+00 1.87500E+00
 -1       243 8.75000E+00 1.25000E+00 2.50000E+00
 -1       244 8.12500E+00 1.87500E+00 4.37500E+00
 -1       245 6.87500E+00 1.87500E+00 3.12500E+00
 -1       246 7.50000E+00 1.25000E+00 1.25000E+00
 -1       247 5.62500E+00 1.87500E+00 1.87500E+00
 -1       248 2.50000E+00 8.75000E+00 8.75000E+00
 -1       249 3.12500E+00 8.12500E+00 6.87500E+00
 -1       250 3.12500E+00 6.87500E+00 8.12500E+00
 -1       251 4.37500E+00 8.12500E+00 8.12500E+00
 -1       252 1.25000E+00 8.75000E+00 7.50000E+00
 -1       253 1.87500E+00 8.12500E+00 5.62500E+00
 -1       254 1.87500E+00 6.87500E+00 6.87500E+00
 -1       255 1.25000E+00 7.50000E+00 8.75000E+00
 -1       256 1.87500E+00 5.62500E+00 8.12500E+00
 -1       257 3.12500E+00 8.12500E+00 4.37500E+00
 -1       258 6.87500E+00 1.87500E+00 5.62500E+00
 -1       259 1.87500E+00 4.37500E+00 6.87500E+00
 -1       260 1.25000E+00 8.75000E+00 2.50000E+00
 -1       261 1.25000E+00 7.50000E+00 1.25000E+00
 -1       262 8.75000E+00 7.50000E+00 1.25000E+00
 -1       263 7.50000E+00 1.25000E+00 8.75000E+00
 -1       264 1.25000E+00 2.50000E+00 8.75000E+00
 -1       265 2.50000E+00 1.25000E+00 1.25000E+00
 -1       266 1.25000E+00 1.25000E+00 7.50000E+00
 -1       267 7.50000E+00 8.75000E+00 8.75000E+00
 -1       268 2.50000E+00 8.75000E+00 1.25000E+00
 -1       269 8.75000E+00 1.25000E+00 7.50000E+00
 -1       270 8.75000E+00 6.25000E+00 2.50000E+00
 -1       271 1.25000E+00 6.25000E+00 2.50000E+00
 -1       272 3.12500E+00 6.87500E+00 3.12500E+00
 -1       273 3.75000E+00 2.50000E+00 1.25000E+00
 -1       274 6.25000E+00 1.25000E+00 7.50000E+00
 -1       275 8.75000E+00 2.50000E+00 6.25000E+00
 -1       276 1.25000E+00 2.50000E+00 6.25000E+00
 -1       277 6.25000E+00 7.50000E+00 8.75000E+00
 -1       278 3.75000E+00 8.75000E+00 2.50000E+00
 -1       279 2.50000E+00 3.75000E+00 8.75000E+00
 -1       280 1.25000E+00 7.50000E+00 3.75000E+00
 -3
    3C                           129                                     1
 -1         1    6    0    1
 -2        95        98        47       196       103       197       198       200       199       201
 -1         2    6    0    1
 -2       147       121       145       196       203       202       161       205       204       206
 -1         3    6    0    1
 -2        73        70        27       121        84        80        83       208       207       136
 -1         4    6    0    1
 -2        72       170        30       171       209       187        75       210       181       194
 -1         5    6    0    1
 -2         9        98        47        95       101       197        54       102       103       198
 -1         6    6    0    1
 -2       172        70        30        71       211        78       186       212        93        91
 -1         7    6    0    1
 -2       170        99        36       174       213       119       184       191       214       190
 -1         8    6    0    1
 -2        12        47       149       145        57       215       150       152       216       155
 -1         9    6    0    1
 -2        70        27       123        72        80       143       217        79        77       218
 -1        10    6    0    1
 -2        39       147       121       145       160       203       132       159       161       202
 -1        11    6    0    1
 -2        70       120       121       196       219       134       207       221       220       204
 -1        12    6    0    1
 -2        70       172       170       196       211       183       222       221       223       224
 -1        13    6    0    1
 -2        95        99       170       195       104       213       225       227       226       228
 -1        14    6    0    1
 -2       145        45        47       196       229        56       216       206       230       201
 -1        15    6    0    1
 -2        70       123       120       195       217       126       219       232       231       233
 -1        16    6    0    1
 -2        47        45        95       196        56       234       198       201       230       200
 -1        17    6    0    1
 -2       121       120       145       196       134       235       202       204       220       206
 -1        18    6    0    1
 -2       145        39       120       121       159       133       235       202       132       134
 -1        19    6    0    1
 -2        70       120        27       121       219       137        80       207       134       136
 -1        20    6    0    1
 -2         9        47        45        95        54        56        52       102       198       234
 -1        21    6    0    1
 -2        70        27       120       123        80       137       219       217       143       126
 -1        22    6    0    1
 -2        45        47        12       145        56        57        58       229       216       152
 -1        23    6    0    1
 -2       170        95        36        99       225       109       184       213       104       119
 -1        24    6    0    1
 -2       195        45       145       196       237       229       236       238       230       206
 -1        25    6    0    1
 -2        95        45       195       196       234       237       227       200       230       238
 -1        26    6    0    1
 -2       170        95       195       196       225       227       228       224       200       238
 -1        27    6    0    1
 -2        70       170       195       196       222       228       232       221       224       238
 -1        28    6    0    1
 -2       195       120        70       196       233       219       232       238       220       221
 -1        29    6    0    1
 -2       145       120       195       196       235       233       236       206       220       238
 -1        30    6    0    1
 -2        74        24       148       196        86       165       239       241       240       242
 -1        31    6    0    1
 -2        21        74        97       196        88       243       114       244       241       245
 -1        32    6    0    1
 -2       148        33        97       196       167       116       246       242       247       245
 -1        33    6    0    1
 -2       173       124        42       195       248       129       175       250       249       251
 -1        34    6    0    1
 -2        48        15       124       195        64       144       252       254       253       249
 -1        35    6    0    1
 -2        18        48       173       195        68       255       188       256       254       250
 -1        36    6    0    1
 -2        74        70        24       196        89        85        86       241       221       240
 -1        37    6    0    1
 -2       170        18       173       195       189       188       177       228       256       250
 -1        38    6    0    1
 -2        70        74        21       196        89        88        90       221       241       244
 -1        39    6    0    1
 -2       120       123        42       195       126       125       127       233       231       251
 -1        40    6    0    1
 -2       170       173        42       195       177       175       178       228       250       251
 -1        41    6    0    1
 -2        42       124       120       195       129       130       127       251       249       233
 -1        42    6    0    1
 -2        15       122       120       195       138       140       139       253       257       233
 -1        43    6    0    1
 -2       124        15       120       195       144       139       130       249       253       233
 -1        44    6    0    1
 -2        15        48        45       195        64        66        67       253       254       237
 -1        45    6    0    1
 -2        24       147       145       196       163       161       164       240       205       206
 -1        46    6    0    1
 -2        95        97        33       196       113       116       115       200       245       247
 -1        47    6    0    1
 -2        33        98        95       196       118       103       115       247       199       200
 -1        48    6    0    1
 -2        95        96        21       196       107       111       110       200       258       244
 -1        49    6    0    1
 -2        97        95        21       196       113       110       114       245       200       244
 -1        50    6    0    1
 -2       145        33       148       196       168       167       166       206       247       242
 -1        51    6    0    1
 -2        24       145       148       196       164       166       165       240       206       242
 -1        52    6    0    1
 -2        18        45        48       195        63        66        68       256       237       254
 -1        53    6    0    1
 -2        45        18        46       195        63        62        53       237       256       259
 -1        54    6    0    1
 -2        48       124       173       195       252       248       255       254       249       250
 -1        55    6    0    1
 -2       148        97        74       196       246       243       239       242       245       241
 -1        56    6    0    1
 -2        74        24         5       148        86        25        87       239       165       169
 -1        57    6    0    1
 -2         3        49       122        15        60       260       141        16        69       138
 -1        58    6    0    1
 -2       146        12        49         3       153        59       261       156        14        60
 -1        59    6    0    1
 -2        15       124         4        48       144       131        17        64       252        65
 -1        60    6    0    1
 -2       149         1        47        12       151        55       215       150        13        57
 -1        61    6    0    1
 -2       147         7        73        24       162        82       262       163        26        81
 -1        62    6    0    1
 -2        36       172         6        96       182       185        38       108       263       112
 -1        63    6    0    1
 -2        98        47         1         9       197        55       100       101        54        10
 -1        64    6    0    1
 -2         2       174        46        18       192       264        50        19       193        62
 -1        65    6    0    1
 -2         1       149        98        33       151       265       100        34       157       118
 -1        66    6    0    1
 -2        48       173         4        18       255       176        65        68       188        20
 -1        67    6    0    1
 -2        30        72       171         8        75       210       194        32        76       180
 -1        68    6    0    1
 -2        97        21         5        74       114        22       117       243        88        87
 -1        69    6    0    1
 -2         9        46         2        99        51        50        11       105       266       106
 -1        70    6    0    1
 -2         8       123       171        42       128       267       180        44       125       179
 -1        71    6    0    1
 -2        97         5        33       148       117        35       116       246       169       167
 -1        72    6    0    1
 -2        99       174         2        36       214       192       106       119       190        37
 -1        73    6    0    1
 -2       173       124         4        42       248       131       176       175       129        43
 -1        74    6    0    1
 -2         3       122       146        39       141       268       156        40       142       158
 -1        75    6    0    1
 -2         8        72       123        27        76       218       128        29        77       143
 -1        76    6    0    1
 -2        71       172         6        30       212       185        92        91       186        31
 -1        77    6    0    1
 -2       147       121         7        39       203       135       162       160       132        41
 -1        78    6    0    1
 -2        73       121        27         7       208       136        83        82       135        28
 -1        79    6    0    1
 -2        71         6        96        21        92       112       269        94        23       111
 -1        80    6    0    1
 -2       146        49       122         3       261       260       268       156        60       141
 -1        81    6    0    1
 -2         2        46       174        99        50       264       192       106       266       214
 -1        82    6    0    1
 -2       123       171        72         8       267       210       218       128       180        76
 -1        83    6    0    1
 -2         7        73       121       147        82       208       135       162       262       203
 -1        84    6    0    1
 -2       173         4       124        48       176       131       248       255        65       252
 -1        85    6    0    1
 -2        96       172         6        71       263       185       112       269       212        92
 -1        86    6    0    1
 -2        74         5        97       148        87       117       243       239       169       246
 -1        87    6    0    1
 -2         1        98       149        47       100       265       151        55       197       215
 -1        88    6    0    1
 -2       147       121        70        73       203       207       270       262       208        84
 -1        89    6    0    1
 -2       121       147        70       196       203       270       207       204       205       221
 -1        90    6    0    1
 -2       147        70        24        73       270        85       163       262        84        81
 -1        91    6    0    1
 -2        70       147        24       196       270       163        85       221       205       240
 -1        92    6    0    1
 -2       146       195        45       145       272       237       271       154       236       229
 -1        93    6    0    1
 -2        12        45       146        49        58       271       153        59        61       261
 -1        94    6    0    1
 -2       146        45        12       145       271        58       153       154       229       152
 -1        95    6    0    1
 -2        98        47       145       149       197       216       273       265       215       155
 -1        96    6    0    1
 -2       145        47        98       196       216       197       273       206       201       199
 -1        97    6    0    1
 -2        33        98       145       149       118       273       168       157       265       155
 -1        98    6    0    1
 -2       145        98        33       196       273       118       168       206       199       247
 -1        99    6    0    1
 -2        95       196       172        96       200       223       274       107       258       263
 -1       100    6    0    1
 -2       172       196        95       170       223       200       274       183       224       225
 -1       101    6    0    1
 -2        36        95       172        96       109       274       182       108       107       263
 -1       102    6    0    1
 -2       172        95        36       170       274       109       182       183       225       184
 -1       103    6    0    1
 -2        96        70       172        71       275       211       263       269        93       212
 -1       104    6    0    1
 -2       172        70        96       196       211       275       263       223       221       258
 -1       105    6    0    1
 -2        96        21        70        71       111        90       275       269        94        93
 -1       106    6    0    1
 -2        70        21        96       196        90       111       275       221       244       258
 -1       107    6    0    1
 -2        45       195        99        95       237       226       276       234       227       104
 -1       108    6    0    1
 -2        99       195        45        46       226       237       276       266       259        53
 -1       109    6    0    1
 -2         9        45        99        95        52       276       105       102       234       104
 -1       110    6    0    1
 -2        99        45         9        46       276        52       105       266        53        51
 -1       111    6    0    1
 -2       123       170        72       171       277       209       218       267       181       210
 -1       112    6    0    1
 -2        42       170       123       171       178       277       125       179       181       267
 -1       113    6    0    1
 -2       170        42       123       195       178       125       277       228       251       231
 -1       114    6    0    1
 -2       170        70       123        72       222       217       277       209        79       218
 -1       115    6    0    1
 -2       123        70       170       195       217       222       277       231       232       228
 -1       116    6    0    1
 -2       120       146       195       122       278       272       233       140       268       257
 -1       117    6    0    1
 -2       146       120       195       145       278       233       272       154       235       236
 -1       118    6    0    1
 -2        39       146       120       122       158       278       133       142       268       140
 -1       119    6    0    1
 -2       146        39       120       145       158       133       278       154       159       235
 -1       120    6    0    1
 -2        46        99       170       174       266       213       279       264       214       191
 -1       121    6    0    1
 -2       170        99        46       195       213       266       279       228       226       259
 -1       122    6    0    1
 -2        18        46       170       174        62       279       189       193       264       191
 -1       123    6    0    1
 -2       170        46        18       195       279        62       189       228       259       256
 -1       124    6    0    1
 -2        70        30       170       172        78       187       222       211       186       183
 -1       125    6    0    1
 -2       170        30        70        72       187        78       222       209        75        79
 -1       126    6    0    1
 -2       122        45       146       195       280       271       268       257       237       272
 -1       127    6    0    1
 -2       146        45       122        49       271       280       268       261        61       260
 -1       128    6    0    1
 -2       122        15        45       195       138        67       280       257       253       237
 -1       129    6    0    1
 -2        45        15       122        49        67       138       280        61        69       260
 -3
    1PSTEP                         1           1           1          
    1PGM                1.000000E+00                                  
    1PGK                1.483748E-02                                  
    1PHID                         -1                                  
    1PSUBC                         0                                  
    1PMODE                         1                                  
  100CL  101 1.93865E-02         280                     2    1MODAL      1
 -4  DISP        4    1
 -5  D1          1    2    1    0
 -5  D2          1    2    2    0
 -5  D3          1    2    3    0
 -5  ALL         1    2    0    0    1ALL
 -1         1-2.90432E+02 5.51020E+02-2.30111E+01
 -1         2-2.25463E+02 5.31666E+02-2.30477E+01
 -1         3 3.83433E+02 5.51009E+02-3.67126E+00
 -1         4 4.48513E+02 5.31726E+02-3.66486E+00
 -1         5-2.90431E+02-1.22907E+02-8.80403E+01
 -1         6-2.25456E+02-1.42102E+02-8.79983E+01
 -1         7 3.83411E+02-1.22899E+02-6.87982E+01
 -1         8 4.48461E+02-1.42149E+02-6.87683E+01
 -1         9-2.57929E+02 5.41352E+02-2.30199E+01
 -1        10-2.74179E+02 5.46183E+02-2.30151E+01
 -1        11-2.41698E+02 5.36522E+02-2.30377E+01
 -1        12 4.65051E+01 5.51014E+02-1.33528E+01
 -1        13-1.21956E+02 5.51014E+02-1.81910E+01
 -1        14 2.14964E+02 5.51006E+02-8.50507E+00
 -1        15 4.15966E+02 5.41365E+02-3.68462E+00
 -1        16 3.99707E+02 5.46176E+02-3.67656E+00
 -1        17 4.32234E+02 5.36557E+02-3.67218E+00
 -1        18 1.11474E+02 5.31713E+02-1.33440E+01
 -1        19-5.70109E+01 5.31682E+02-1.81971E+01
 -1        20 2.80005E+02 5.31734E+02-8.49175E+00
 -1        21-2.57943E+02-1.32519E+02-8.79909E+01
 -1        22-2.74188E+02-1.27738E+02-8.80164E+01
 -1        23-2.41707E+02-1.37304E+02-8.79886E+01
 -1        24 4.65358E+01-1.22912E+02-7.83576E+01
 -1        25-1.21954E+02-1.22912E+02-8.31961E+01
 -1        26 2.14976E+02-1.22908E+02-7.35750E+01
 -1        27 4.15928E+02-1.32518E+02-6.87795E+01
 -1        28 3.99675E+02-1.27705E+02-6.87910E+01
 -1        29 4.32192E+02-1.37336E+02-6.87648E+01
 -1        30 1.11473E+02-1.42145E+02-7.83610E+01
 -1        31-5.69935E+01-1.42120E+02-8.31873E+01
 -1        32 2.79966E+02-1.42151E+02-7.35613E+01
 -1        33-2.90444E+02 2.14014E+02-5.55088E+01
 -1        34-2.90437E+02 3.82526E+02-3.92643E+01
 -1        35-2.90438E+02 4.55455E+01-7.17750E+01
 -1        36-2.25459E+02 1.94788E+02-5.55026E+01
 -1        37-2.25466E+02 3.63228E+02-3.92726E+01
 -1        38-2.25458E+02 2.63469E+01-7.17411E+01
 -1        39 3.83421E+02 2.14005E+02-3.62515E+01
 -1        40 3.83435E+02 3.82521E+02-1.99493E+01
 -1        41 3.83409E+02 4.55351E+01-5.25368E+01
 -1        42 4.48474E+02 1.94784E+02-3.62139E+01
 -1        43 4.48500E+02 3.63244E+02-1.99396E+01
 -1        44 4.48463E+02 2.63256E+01-5.24947E+01
 -1        45 7.90176E+01 5.41366E+02-1.33478E+01
 -1        46-7.32334E+01 5.36538E+02-1.81951E+01
 -1        47-1.05715E+02 5.46186E+02-1.81867E+01
 -1        48 2.63748E+02 5.36560E+02-8.49424E+00
 -1        49 2.31234E+02 5.46174E+02-8.50559E+00
 -1        50-1.49353E+02 5.34101E+02-2.06212E+01
 -1        51-1.65581E+02 5.38948E+02-2.06129E+01
 -1        52-8.94626E+01 5.41364E+02-1.81917E+01
 -1        53 2.89292E+00 5.38958E+02-1.57699E+01
 -1        54-1.81818E+02 5.43767E+02-2.06020E+01
 -1        55-1.98070E+02 5.48603E+02-2.06007E+01
 -1        56-1.33474E+01 5.43774E+02-1.57717E+01
 -1        57-2.95984E+01 5.48597E+02-1.57738E+01
 -1        58 6.27665E+01 5.46180E+02-1.33501E+01
 -1        59 1.38868E+02 5.48590E+02-1.09254E+01
 -1        60 3.07334E+02 5.48589E+02-6.08821E+00
 -1        61 1.55130E+02 5.43768E+02-1.09250E+01
 -1        62 1.91138E+01 5.34122E+02-1.57675E+01
 -1        63 9.52491E+01 5.36548E+02-1.33432E+01
 -1        64 3.39859E+02 5.38965E+02-6.08877E+00
 -1        65 3.56127E+02 5.34146E+02-6.07869E+00
 -1        66 1.71377E+02 5.38961E+02-1.09191E+01
 -1        67 2.47493E+02 5.41364E+02-8.50413E+00
 -1        68 1.87618E+02 5.34143E+02-1.09135E+01
 -1        69 3.23603E+02 5.43766E+02-6.09074E+00
 -1        70 7.89967E+01-1.32534E+02-7.83599E+01
 -1        71-7.32479E+01-1.37313E+02-8.31845E+01
 -1        72 2.63718E+02-1.37338E+02-7.35674E+01
 -1        73 2.31220E+02-1.27714E+02-7.35771E+01
 -1        74-1.05720E+02-1.27745E+02-8.31934E+01
 -1        75 1.87591E+02-1.39743E+02-7.59604E+01
 -1        76 3.56085E+02-1.39747E+02-7.11656E+01
 -1        77 3.39830E+02-1.34927E+02-7.11726E+01
 -1        78 9.52283E+01-1.37328E+02-7.83610E+01
 -1        79 1.71356E+02-1.34931E+02-7.59665E+01
 -1        80 2.47472E+02-1.32524E+02-7.35749E+01
 -1        81 1.38873E+02-1.25315E+02-7.59645E+01
 -1        82 3.07320E+02-1.25301E+02-7.11886E+01
 -1        83 3.23577E+02-1.30115E+02-7.11854E+01
 -1        84 1.55114E+02-1.30127E+02-7.59677E+01
 -1        85 6.27607E+01-1.27732E+02-7.83605E+01
 -1        86-2.95934E+01-1.25330E+02-8.07735E+01
 -1        87-1.98074E+02-1.25332E+02-8.56165E+01
 -1        88-1.81834E+02-1.30141E+02-8.55994E+01
 -1        89-1.33639E+01-1.30141E+02-8.07765E+01
 -1        90-8.94839E+01-1.32530E+02-8.31869E+01
 -1        91 1.91135E+01-1.39723E+02-8.07755E+01
 -1        92-1.49355E+02-1.39704E+02-8.55940E+01
 -1        93 2.86855E+00-1.34923E+02-8.07724E+01
 -1        94-1.65599E+02-1.34913E+02-8.55881E+01
 -1        95-2.57937E+02 2.04398E+02-5.55013E+01
 -1        96-2.41709E+02 3.11487E+01-7.17369E+01
 -1        97-2.74185E+02 4.07273E+01-7.17626E+01
 -1        98-2.74185E+02 3.77704E+02-3.92627E+01
 -1        99-2.41706E+02 3.68061E+02-3.92673E+01
 -1       100-2.82308E+02 4.64363E+02-3.11388E+01
 -1       101-2.66053E+02 4.59528E+02-3.11386E+01
 -1       102-2.57935E+02 3.72881E+02-3.92598E+01
 -1       103-2.66058E+02 2.91047E+02-4.73823E+01
 -1       104-2.49825E+02 2.86237E+02-4.73839E+01
 -1       105-2.49817E+02 4.54709E+02-3.11459E+01
 -1       106-2.33582E+02 4.49869E+02-3.11584E+01
 -1       107-2.49826E+02 1.17771E+02-6.36147E+01
 -1       108-2.33585E+02 1.12973E+02-6.36168E+01
 -1       109-2.41707E+02 1.99601E+02-5.55002E+01
 -1       110-2.57943E+02 3.59378E+01-7.17420E+01
 -1       111-2.49827E+02-5.06819E+01-7.98635E+01
 -1       112-2.33585E+02-5.54745E+01-7.98668E+01
 -1       113-2.66059E+02 1.22564E+02-6.36261E+01
 -1       114-2.66064E+02-4.59015E+01-7.98775E+01
 -1       115-2.74185E+02 2.09208E+02-5.55063E+01
 -1       116-2.82312E+02 1.27368E+02-6.36362E+01
 -1       117-2.82307E+02-4.10959E+01-7.99057E+01
 -1       118-2.82312E+02 2.95861E+02-4.73863E+01
 -1       119-2.33585E+02 2.81423E+02-4.73848E+01
 -1       120 4.15949E+02 2.04404E+02-3.62487E+01
 -1       121 3.99678E+02 4.07288E+01-5.25351E+01
 -1       122 3.99708E+02 3.77696E+02-1.99527E+01
 -1       123 4.32192E+02 3.11348E+01-5.25057E+01
 -1       124 4.32222E+02 3.68074E+02-1.99437E+01
 -1       125 4.40327E+02 1.12961E+02-4.43583E+01
 -1       126 4.24072E+02 1.17767E+02-4.43791E+01
 -1       127 4.32204E+02 1.99596E+02-3.62321E+01
 -1       128 4.40325E+02-5.55065E+01-6.06340E+01
 -1       129 4.40349E+02 2.81422E+02-2.80826E+01
 -1       130 4.24079E+02 2.86240E+02-2.80939E+01
 -1       131 4.40370E+02 4.49900E+02-1.18030E+01
 -1       132 3.91551E+02 1.27360E+02-4.43989E+01
 -1       133 3.99696E+02 2.09198E+02-3.62519E+01
 -1       134 4.07815E+02 1.22557E+02-4.43940E+01
 -1       135 3.91542E+02-4.10806E+01-6.06667E+01
 -1       136 4.07806E+02-4.58917E+01-6.06605E+01
 -1       137 4.15941E+02 3.59353E+01-5.25216E+01
 -1       138 4.07840E+02 4.59529E+02-1.18155E+01
 -1       139 4.15959E+02 3.72885E+02-1.99558E+01
 -1       140 4.07832E+02 2.91047E+02-2.81018E+01
 -1       141 3.91573E+02 4.64351E+02-1.18089E+01
 -1       142 3.91572E+02 2.95857E+02-2.80988E+01
 -1       143 4.24063E+02-5.06936E+01-6.06429E+01
 -1       144 4.24093E+02 4.54724E+02-1.18123E+01
 -1       145 4.65072E+01 2.14016E+02-4.58779E+01
 -1       146 2.14953E+02 3.82519E+02-2.47761E+01
 -1       147 2.14970E+02 4.55442E+01-5.73335E+01
 -1       148-1.21959E+02 4.55528E+01-6.69554E+01
 -1       149-1.21951E+02 3.82524E+02-3.44439E+01
 -1       150-3.77228E+01 4.66769E+02-2.39027E+01
 -1       151-2.06191E+02 4.66776E+02-2.87266E+01
 -1       152 4.65044E+01 3.82518E+02-2.96143E+01
 -1       153 1.30732E+02 4.66767E+02-1.90608E+01
 -1       154 1.30724E+02 2.98262E+02-3.53298E+01
 -1       155-3.77182E+01 2.98269E+02-4.01600E+01
 -1       156 2.99194E+02 4.66769E+02-1.42236E+01
 -1       157-2.06189E+02 2.98271E+02-4.49795E+01
 -1       158 2.99185E+02 2.98262E+02-3.05072E+01
 -1       159 2.14950E+02 2.14006E+02-4.10606E+01
 -1       160 2.99182E+02 1.29765E+02-4.68004E+01
 -1       161 1.30738E+02 1.29778E+02-5.16068E+01
 -1       162 2.99194E+02-3.86825E+01-6.30617E+01
 -1       163 1.30757E+02-3.86798E+01-6.78473E+01
 -1       164 4.65237E+01 4.55546E+01-6.21354E+01
 -1       165-3.77104E+01-3.86755E+01-7.26602E+01
 -1       166-3.77171E+01 1.29789E+02-5.64167E+01
 -1       167-2.06200E+02 1.29777E+02-6.12322E+01
 -1       168-1.21952E+02 2.14021E+02-5.06960E+01
 -1       169-2.06198E+02-3.86798E+01-7.74962E+01
 -1       170 1.11481E+02 1.94781E+02-4.58388E+01
 -1       171 2.79974E+02 2.63314E+01-5.73020E+01
 -1       172-5.70030E+01 2.63443E+01-6.69272E+01
 -1       173 2.79998E+02 3.63237E+02-2.47604E+01
 -1       174-5.70084E+01 3.63226E+02-3.44272E+01
 -1       175 3.64242E+02 2.79006E+02-3.04881E+01
 -1       176 3.64262E+02 4.47482E+02-1.42127E+01
 -1       177 1.95735E+02 2.79001E+02-3.53037E+01
 -1       178 2.79985E+02 1.94781E+02-4.10282E+01
 -1       179 3.64226E+02 1.10556E+02-4.67608E+01
 -1       180 3.64218E+02-5.79078E+01-6.30331E+01
 -1       181 1.95728E+02 1.10563E+02-5.15727E+01
 -1       182-1.41233E+02 1.10567E+02-6.12104E+01
 -1       183 2.72345E+01 1.10563E+02-5.63825E+01
 -1       184-5.70008E+01 1.94787E+02-5.06747E+01
 -1       185-1.41229E+02-5.78786E+01-7.74670E+01
 -1       186 2.72350E+01-5.78958E+01-7.26449E+01
 -1       187 1.11472E+02 2.63325E+01-6.21045E+01
 -1       188 1.95737E+02 4.47475E+02-1.90398E+01
 -1       189 1.11475E+02 3.63230E+02-2.95836E+01
 -1       190-1.41236E+02 2.79007E+02-4.49695E+01
 -1       191 2.72337E+01 2.79004E+02-4.01269E+01
 -1       192-1.41241E+02 4.47448E+02-2.87360E+01
 -1       193 2.72263E+01 4.47458E+02-2.38854E+01
 -1       194 1.95718E+02-5.79048E+01-6.78329E+01
 -1       195 1.71362E+02 2.86228E+02-3.53188E+01
 -1       196-1.33476E+01 1.22570E+02-5.64095E+01
 -1       197-1.89946E+02 4.61947E+02-2.87266E+01
 -1       198-1.81819E+02 3.75289E+02-3.68501E+01
 -1       199-1.43760E+02 2.50129E+02-4.78335E+01
 -1       200-1.35643E+02 1.63483E+02-5.59554E+01
 -1       201-5.95246E+01 3.34369E+02-3.72985E+01
 -1       202 2.23091E+02 1.27364E+02-4.92021E+01
 -1       203 3.07320E+02 4.31353E+01-5.49345E+01
 -1       204 1.93170E+02 8.16479E+01-5.44598E+01
 -1       205 1.00819E+02 8.40549E+01-5.68700E+01
 -1       206 1.65895E+01 1.68291E+02-5.11478E+01
 -1       207 2.39349E+02-4.58966E+01-6.54499E+01
 -1       208 3.15451E+02-4.34869E+01-6.30592E+01
 -1       209 1.87596E+02 2.87379E+01-5.97083E+01
 -1       210 2.71840E+02-5.55017E+01-6.54365E+01
 -1       211 1.09853E+01-5.30845E+01-7.26461E+01
 -1       212-6.51261E+01-5.54804E+01-7.50594E+01
 -1       213-6.51240E+01 2.81421E+02-4.25490E+01
 -1       214-1.49358E+02 3.65647E+02-3.68496E+01
 -1       215-1.13831E+02 4.64358E+02-2.63156E+01
 -1       216-2.95959E+01 3.80104E+02-3.20293E+01
 -1       217 2.55597E+02-5.06927E+01-6.54460E+01
 -1       218 3.47958E+02-5.30974E+01-6.30417E+01
 -1       219 2.47474E+02 3.59355E+01-5.73179E+01
 -1       220 2.01294E+02 1.63485E+02-4.63224E+01
 -1       221 3.28194E+01-4.98353E+00-6.73833E+01
 -1       222 9.52281E+01 3.11423E+01-6.21107E+01
 -1       223-3.51907E+01 7.44586E+01-6.16638E+01
 -1       224 4.90527E+01 1.58684E+02-5.11259E+01
 -1       225-7.32450E+01 1.99598E+02-5.06803E+01
 -1       226-3.51785E+01 3.27151E+02-3.72864E+01
 -1       227-4.32971E+01 2.45319E+02-4.54188E+01
 -1       228 1.41420E+02 2.40502E+02-4.05773E+01
 -1       229 6.27650E+01 3.77689E+02-2.96122E+01
 -1       230 3.28319E+01 3.31960E+02-3.48827E+01
 -1       231 3.01779E+02 1.58684E+02-4.39112E+01
 -1       232 1.25175E+02 7.68534E+01-5.68521E+01
 -1       233 2.93655E+02 2.45320E+02-3.57783E+01
 -1       234-8.94663E+01 3.72884E+02-3.44390E+01
 -1       235 2.31221E+02 2.09198E+02-4.10585E+01
 -1       236 1.08941E+02 2.50120E+02-4.06030E+01
 -1       237 1.25191E+02 4.13795E+02-2.43286E+01
 -1       238 7.90026E+01 2.04401E+02-4.58674E+01
 -1       239-1.13835E+02-4.10953E+01-7.50789E+01
 -1       240 1.65879E+01-1.75681E-01-6.73952E+01
 -1       241-5.95364E+01-2.58723E+00-6.98060E+01
 -1       242-6.76487E+01 8.40555E+01-6.16856E+01
 -1       243-1.89953E+02-4.35089E+01-7.74876E+01
 -1       244-1.35655E+02-4.98302E+00-7.22092E+01
 -1       245-1.43767E+02 8.16451E+01-6.40893E+01
 -1       246-1.98073E+02 4.31337E+01-6.93655E+01
 -1       247-1.51884E+02 1.68290E+02-5.59616E+01
 -1       248 3.56118E+02 3.65654E+02-2.23531E+01
 -1       249 3.01789E+02 3.27151E+02-2.76306E+01
 -1       250 2.25672E+02 3.24733E+02-3.00366E+01
 -1       251 3.09913E+02 2.40505E+02-3.57670E+01
 -1       252 3.47989E+02 4.52314E+02-1.42164E+01
 -1       253 2.93669E+02 4.13800E+02-1.94958E+01
 -1       254 2.17554E+02 4.11390E+02-2.19034E+01
 -1       255 2.71873E+02 4.49898E+02-1.66232E+01
 -1       256 1.41424E+02 4.08973E+02-2.43149E+01
 -1       257 2.85540E+02 3.31959E+02-2.76364E+01
 -1       258-1.27538E+02 7.68560E+01-6.40759E+01
 -1       259 4.90663E+01 4.11388E+02-2.67408E+01
 -1       260 3.15470E+02 4.61936E+02-1.42231E+01
 -1       261 2.23098E+02 4.64350E+02-1.66385E+01
 -1       262 2.23097E+02-4.10850E+01-6.54528E+01
 -1       263-1.49359E+02 2.87505E+01-6.93358E+01
 -1       264-6.51263E+01 4.49876E+02-2.63085E+01
 -1       265-1.98065E+02 3.80114E+02-3.68536E+01
 -1       266-1.57470E+02 4.52297E+02-2.87331E+01
 -1       267 3.56086E+02 2.87328E+01-5.49032E+01
 -1       268 3.07329E+02 3.80107E+02-2.23626E+01
 -1       269-1.57482E+02-5.30779E+01-7.74658E+01
 -1       270 1.46994E+02-4.34943E+01-6.78463E+01
 -1       271 1.47000E+02 4.61937E+02-1.90576E+01
 -1       272 1.93174E+02 3.34362E+02-3.00534E+01
 -1       273-1.13824E+02 2.95862E+02-4.25691E+01
 -1       274-1.57480E+02 1.15373E+02-6.12127E+01
 -1       275-8.13685E+01-5.06859E+01-7.50613E+01
 -1       276-8.13489E+01 4.54716E+02-2.63133E+01
 -1       277 2.71846E+02 1.12965E+02-4.91732E+01
 -1       278 3.15459E+02 2.93447E+02-3.05091E+01
 -1       279 1.91139E+01 3.65645E+02-3.20043E+01
 -1       280 2.39365E+02 4.59527E+02-1.66365E+01
 -3
    1PSTEP                         2           1           1          
    1PGM                1.000000E+00                                  
    1PGK                1.483748E-02                                  
    1PHID                         -1                                  
    1PSUBC                         0                                  
    1PMODE                         1                                  
  100CL  101 1.93865E-02         280                     2    1MODAL      1
 -4  STRESS      6    1
 -5  SXX         1    4    1    1
 -5  SYY         1    4    2    2
 -5  SZZ         1    4    3    3
 -5  SXY         1    4    1    2
 -5  SYZ         1    4    2    3
 -5  SZX         1    4    3    1
 -1         1-2.86173E+02-8.91548E+01-2.21936E+02 2.16076E+02-2.93500E+02 7.93274E+00
 -1         2-2.78110E+02 1.96820E+02-2.62739E+02-1.32528E+02-2.59691E+02 1.57266E+02
 -1         3 2.41152E+02 6.28592E+01-1.60477E+02 3.43808E+02-3.03160E+02 2.88983E+02
 -1         4-9.59887E+01-8.18494E+02 6.33740E+01-2.03638E+02-5.08901E+02 2.20820E+02
 -1         5 5.46249E+02 1.34178E+01 7.53137E+02 3.93475E+02-4.07524E+02 3.02045E+00
 -1         6-1.12208E+02-7.61641E+02-6.70395E+02 3.78288E+01-4.68744E+02 1.31524E+02
 -1         7 3.59062E+02 2.06064E+02 3.42463E+02-7.39422E+01-2.06017E+02 2.21737E+02
 -1         8-1.59744E+02 2.37292E+02-4.07090E+02 1.52994E+02-2.55106E+02 1.45421E+02
 -1         9-6.38836E+02 4.63712E+02-1.20439E+03-6.64706E+01 2.23131E+02-1.19931E+02
 -1        10-6.45939E+01-2.70314E+01-3.78201E+02 1.28656E+02-2.05048E+02 1.65219E+02
 -1        11-3.11686E+02 1.51620E+02-1.16172E+03-6.23085E+01-2.04264E+02 2.66067E+01
 -1        12-1.70110E+02-4.88147E+02-3.94123E+01-9.16271E+02 3.28558E+02 6.74452E+01
 -1        13-1.23934E+02-2.62305E+02 2.08513E+01-2.79181E+02-3.52446E+01 1.21099E+02
 -1        14 5.36579E+01-1.92626E+02 9.40544E-01-1.43303E+02 3.87316E+01 6.62500E+01
 -1        15-1.46427E+02 2.07148E+02 8.33022E+01-2.49244E+02 4.58385E+02-2.79110E+02
 -1        16 2.49244E+02 9.43922E+01-4.31386E+02 6.96984E+01-1.53691E+01 4.80782E+01
 -1        17-2.05960E+02-1.01197E+01 7.25779E+02-7.61998E+01 6.79244E+01 1.69080E+02
 -1        18 3.84755E+02 2.69567E+03 4.15144E+02 5.10835E+02 4.44647E+02-4.62462E+01
 -1        19 1.57411E+02 1.89229E+03-9.07487E+00-2.88387E+01-2.51630E+01 1.09506E+02
 -1        20-1.27485E+01 6.61247E+02 3.80603E+02 2.71092E+02 2.64406E+02 1.36303E+02
 -1        21 2.75849E+02-4.39987E+02 1.32002E+03-2.73656E+02 7.36894E+02-3.75880E+02
 -1        22-8.00324E+00-2.36281E+02 1.90502E+03 7.69662E+00 1.13683E+02-1.25489E+01
 -1        23-1.40357E+02-3.28505E+02-4.37461E+02-1.29429E+02 2.42412E+01-1.47169E+02
 -1        24 1.64702E+02 3.40377E+02 1.44801E+02-9.46691E+01-5.00086E+02 2.96885E+02
 -1        25 4.21352E+02 7.64613E+01 5.03813E+02 3.92677E+02-6.21369E+01 1.83859E+02
 -1        26-6.35129E+02 2.45632E+02-2.19320E+02-4.57156E+02-5.38553E+02-5.88474E+01
 -1        27-4.78146E+02 6.03225E+02 1.63994E+03-1.25059E+02-2.63048E+02 1.74336E+02
 -1        28 2.83720E+02 1.73757E+02 8.85160E+02-1.96582E+01-2.81298E+02 2.13163E+02
 -1        29-1.56149E+02 4.35209E+02 5.31929E+02-9.87140E+01-3.10541E+02 3.60975E+02
 -1        30-6.50736E+01-1.75483E+03-6.88936E+02-3.26540E+02-1.61728E+02-4.82781E+01
 -1        31-1.73909E+02-1.93341E+03-6.10800E+02-1.83718E+02-1.16813E+02-4.92243E+01
 -1        32-1.88462E+02-3.36695E+02-3.67474E+02 5.43354E+01-3.56354E+02 2.28210E+02
 -1        33-4.11993E+02 2.49164E+02 1.57358E+02 3.85183E+01-1.40409E+01 3.12807E+02
 -1        34-4.70657E+02 1.60218E+01-5.20037E+01 6.89945E+00-1.01143E+02 2.48046E+02
 -1        35 6.56428E+02 4.12594E+01 4.84077E+02 4.72907E+02-1.48919E+02-1.64013E+02
 -1        36 1.96575E+02-2.91740E+01-2.83413E+02 2.22965E+02 3.31212E+01 6.61680E+02
 -1        37 1.40157E+02 7.62958E+01-4.68731E+01 1.95592E+02-2.53062E+01 2.45399E+02
 -1        38-8.12031E+01-3.85989E+02-3.11017E+02 1.96151E+02-2.37144E+02 2.89818E+02
 -1        39-1.95778E+03-1.91830E+02-8.44746E+02-5.51930E+02-9.06391E+01-6.23670E+02
 -1        40-6.26408E+02-3.67466E+00-3.96967E+02-3.22549E+02-6.12552E+01-1.22635E+02
 -1        41-3.09592E+02 1.23664E+02 1.33740E+02 4.90025E+01-1.87647E+01 3.69914E+01
 -1        42-1.92933E+03 9.23309E+00 3.76541E+02 1.06447E+03 5.41041E+01 2.87195E+02
 -1        43-1.56060E+03-2.32058E+02 1.76029E+02 3.64344E+02-1.25510E+02 9.66593E+01
 -1        44-6.16134E+02-5.97862E+01-3.29477E+02 3.72896E+02-3.47484E+01 5.94280E+01
 -1        45-4.50281E+02-3.85993E+02 3.46905E+02-2.30290E+02 1.34244E+03-5.10810E+02
 -1        46 3.59205E+02 1.21262E+03 6.32906E+02-2.65832E+02 8.95909E+01-4.20595E+02
 -1        47 4.38752E+02-4.17601E+02 1.10260E+02-4.70153E+02-1.91284E+02-1.67606E+02
 -1        48-5.25704E+01 6.15330E+02 1.00899E+03-1.75063E+02 3.47147E+02-4.50342E+01
 -1        49 1.41911E+02-1.31218E+02 4.17576E+01 3.23952E+01 3.90508E+02 2.62504E+02
 -1        50-2.95556E-01 1.05664E+03 2.08867E+02-1.70371E+02-2.43222E+02-6.52406E+01
 -1        51-5.03590E+00 1.27144E+03-5.24782E+02 6.61274E+01 1.23067E+02-2.10398E+02
 -1        52-5.72051E+02 2.75488E+02-3.80093E+02-7.84904E+01 7.05221E+02-3.28140E+02
 -1        53 1.74799E+01 3.09546E+02 4.19712E+02-2.50124E+02 7.79897E+02-3.73454E+02
 -1        54-1.69022E+02 2.36832E+02-3.98226E+02-3.34144E+02-3.37872E+01 4.51445E+01
 -1        55-6.31857E+01-1.55519E+02 4.25904E+01-8.09583E+01-2.58887E+02-1.82065E+02
 -1        56 2.72082E+00-2.75584E+02 3.28217E+01-2.10202E+02 6.44829E+02-1.72187E+02
 -1        57-2.27837E+02-6.64448E+02-4.72233E+01-5.73539E+02 5.81548E+01-1.91942E+02
 -1        58-1.61302E+02-3.51656E+02 4.42522E+01-3.80749E+02 9.33637E+02-1.69626E+02
 -1        59 1.43337E+02-5.38675E+02 2.95537E+01-2.70796E+02 3.98896E+02 1.17015E+02
 -1        60 1.66709E+02 1.23120E+02-1.97730E+01 1.52486E+02-1.68035E+01 2.71405E+02
 -1        61-1.79677E+02-4.58451E+02 2.11322E+01 3.06655E+01 9.81146E+02-8.69942E+01
 -1        62 4.91916E+02 2.11906E+03 6.31065E+02-1.11018E+02 1.66752E+02-2.78837E+02
 -1        63-1.92762E+02 1.12443E+03 4.34184E+02-3.22335E+01 8.45989E+02-4.08822E+02
 -1        64-1.04405E+02 4.47586E+02 9.44370E+02-2.48826E+02 5.50531E+02 6.82930E+00
 -1        65 1.24438E+02-2.37048E+02 5.31075E+02-1.72170E+02-1.93942E+02 1.10957E+02
 -1        66-1.97914E+02 4.14750E+02 8.41687E+02-3.53568E+02 1.08720E+03-3.54817E+02
 -1        67-3.80666E+02-1.83100E+02-8.42457E+01-2.83323E+02 8.51313E+02-3.95595E+02
 -1        68-1.71267E+02 1.49433E+03 4.69312E+02 3.47876E+02 6.26815E+02-7.50544E+01
 -1        69 1.79575E+02 1.18938E+02-1.13978E+02-5.75090E+01 4.09569E+02-1.46093E+00
 -1        70 3.49904E+02 4.16795E+02 2.26495E+02 4.93121E+02 5.05861E+02-3.31788E+02
 -1        71 2.96263E+01-1.36393E+03-8.76017E+02 9.26114E+01 7.72193E+02 7.28916E+01
 -1        72 1.03636E+02-1.57807E+02 9.00358E+02-2.37223E+02-7.93826E+02-2.52912E+02
 -1        73 7.12309E+01 1.71873E+03 2.99967E+02 3.90007E+02-1.23691E+03-2.77778E+01
 -1        74-1.98424E-01 7.03701E+02 6.35994E+02-1.16392E+02 7.48513E+02 1.24262E+02
 -1        75-3.19350E+01-8.82649E+02 1.26696E+02-1.74503E+02-5.96688E+02-9.30187E+01
 -1        76 1.14610E+01 2.33806E+02 3.20645E+02 2.38445E+01-5.07562E+02-9.46237E+00
 -1        77-2.70031E+02 2.37766E+02 1.08562E+03-3.66287E+02-5.82154E+02 1.78233E+02
 -1        78-5.18243E+01-1.26682E+03-4.39946E+02-1.78900E+01 2.72317E+02-3.42954E+02
 -1        79 1.37776E+02 1.57149E+02 4.49200E+02 1.20121E+02-4.86422E+02-3.04269E+02
 -1        80 9.88896E+01 9.75689E+02 9.63170E+02 3.17021E+02-3.80149E+02-6.17033E+01
 -1        81-2.62155E+02 1.21580E+03 1.52583E+02-1.08485E+02-1.09483E+03-7.77066E+01
 -1        82 2.31527E+02 1.10195E+03 2.66781E+02 1.80277E+02-7.85189E+02 1.15527E+00
 -1        83 1.01195E+01 1.24596E+03 9.93300E+02 2.75690E+02-7.89619E+02-2.69194E+01
 -1        84-1.65089E+02 1.20541E+03 1.06322E+02 3.02084E+02-7.60063E+02-8.60988E+01
 -1        85 1.30819E+02 1.11873E+03 2.83470E+02 1.17919E+02-1.20166E+02 5.41044E+01
 -1        86-3.41623E+01 6.27078E+02 1.97889E+02 9.36414E+01 2.99350E+02 1.90001E+02
 -1        87 1.60384E+02 5.81117E+01 7.68934E+02 1.17071E+02 7.30598E+01 1.29396E+02
 -1        88 1.79695E+02-8.64134E+01 1.29564E+03-2.85098E+02 1.00716E+03-9.21376E+00
 -1        89 9.46477E+01 7.02625E+02 1.58890E+02 2.01608E+02 1.16654E+03-1.51172E+02
 -1        90 1.21038E+02-3.49420E+02 6.80944E+02 6.43334E+01 1.37923E+03-3.95820E+02
 -1        91-6.64036E+01-1.95831E+03-8.10171E+02-8.32958E+01 4.76014E+02-1.59939E+02
 -1        92-6.75355E+01-1.19171E+03-9.20350E+02 7.19187E+01 1.97646E+02 1.60539E+02
 -1        93 3.20412E+01-7.31937E+02-1.26730E+02 1.92649E+02 1.17363E+03-2.33372E+02
 -1        94 6.60028E+01-8.91794E+02-1.60141E+02-6.82901E+01 6.92930E+02-1.99959E+02
 -1        95-3.82109E+01 1.88509E+02 2.76042E+02-3.65765E+02 3.00522E+02-4.03709E+02
 -1        96-2.62654E+02-8.03514E+01-2.35777E+02 6.07901E+01 6.67908E+01-4.56568E+02
 -1        97 5.27760E+02 3.51096E+02 2.11281E+03-5.71089E+00-1.37098E+02-5.90430E+02
 -1        98 7.76659E+01-2.19750E+01 3.52516E+02-1.59833E+02-1.90314E+02 1.31486E+02
 -1        99-1.05781E+03-2.23501E+02-6.59485E+02-9.13459E+01 1.56611E+02 1.71974E+02
 -1       100-3.49934E+02-1.01176E+01-1.24563E+02-2.52150E+01-2.29407E+02-1.26142E+01
 -1       101-4.20762E+02 6.30155E+01-1.21067E+02-1.12167E+02-1.02202E+02 2.66204E+02
 -1       102-4.99528E+02 1.52552E+02-6.97076E+02-3.48031E+02 2.75300E+02-4.23696E+02
 -1       103-3.57070E+01 9.78400E+01 4.88650E+02-2.08529E+02-6.08053E+01 1.96733E+02
 -1       104-5.14862E+02-4.91096E+01-2.02988E+02-4.54225E+02 3.29664E+02-2.69762E+02
 -1       105-1.09012E+03 2.07774E+02-1.24077E+03-7.33868E+01-1.46233E+01-8.69976E+01
 -1       106-9.03686E+02-1.27269E+02-8.00867E+02-9.81945E+01-4.66394E+01 2.95058E+02
 -1       107-1.11462E+02 8.62522E+01 2.15440E+02-1.04155E+01 2.30397E+02-2.32848E+02
 -1       108-1.67309E+02-1.05182E+02-4.86813E+02 1.21324E+02 1.56337E+02 3.05918E+02
 -1       109-3.40025E+01-6.00612E+01-7.99613E+01-1.72870E+02 2.51540E+02 2.90405E+02
 -1       110 8.02770E+01 3.22947E+01 1.04032E+03 5.16531E+01 3.88451E+02-3.88528E+02
 -1       111-5.86898E+01-3.81451E+02 1.21945E+02-7.40523E+01 2.08415E+02-5.00145E+02
 -1       112-1.05128E+02-1.87514E+02-4.55206E+02 1.69877E+01-2.26894E+02-1.70611E+02
 -1       113 3.70534E+01 1.49326E+02 1.07154E+03-2.35120E+01 6.13770E+01-1.35155E+02
 -1       114 6.04826E+02 1.43436E+02 2.44623E+03-1.39302E+02 3.82736E+02-3.56783E+02
 -1       115 1.21543E+02 3.07212E+02 4.28836E+02-1.19087E+02 1.89790E+01 2.95868E+02
 -1       116 3.92390E+02 8.47128E+01 1.05899E+03 3.88618E+01-3.19997E+01-2.30143E+02
 -1       117 6.81498E+02 2.58004E+02 1.65809E+03 1.83652E+02-3.53260E+02-4.08515E+02
 -1       118-2.41895E+02 2.64839E+02 1.70463E+02-1.24941E+02-4.58944E+01 3.02281E+02
 -1       119-1.48396E+02-1.14257E+02-4.73677E+02-1.86236E+01 2.45066E+02 4.86314E+02
 -1       120-4.45383E+02 8.44937E+01 6.88449E+02-2.64118E+01 3.04181E+02-1.22732E+03
 -1       121-9.64408E+01 5.87000E+01 6.64390E+02 6.92160E+02-5.59811E+02 8.46684E+01
 -1       122-7.09143E+02-9.58194E+01-5.07846E+02 8.97934E+00-2.13685E+02-6.64015E+02
 -1       123 2.71817E+02-2.63899E+02 1.37596E+03 8.46463E+01 1.98156E+02-5.21390E+02
 -1       124-1.55612E+03 3.26221E+02 3.87896E+01-2.32226E+02-3.03132E+02-4.16949E+01
 -1       125-5.94641E+02 2.90886E+01 1.05002E+03 5.22355E+02 1.44349E+02-1.73642E+02
 -1       126 5.84607E+01-1.19871E+02 1.46931E+03 1.43424E+02 3.74251E+01-8.96815E+02
 -1       127-6.85578E+02 2.47948E+02 1.26109E+03 5.31808E+02-1.57317E+02-5.41866E+02
 -1       128 4.50993E+02 4.53281E+01 5.84648E+02 5.64259E+01-4.04974E+01-4.33055E+01
 -1       129-2.19558E+03 7.45263E+01 6.54047E+01 4.31754E+02-1.47028E+02 1.53786E+01
 -1       130-6.83950E+02 3.80211E+02 8.31302E+02-2.08522E+02-1.66853E+02-1.03333E+03
 -1       131-8.78874E+02-2.32514E+02-1.35606E+02-1.94005E+02-4.83256E+02 1.27611E+02
 -1       132-1.48001E+03-2.51527E+02-4.24920E+02 3.14800E+02-2.99433E+02-3.54513E+02
 -1       133-1.69016E+03-4.06874E+01-4.07689E+02-3.11140E+02 1.17448E+02-1.13129E+03
 -1       134-5.09510E+02-2.68193E+02 5.53978E+02 1.61581E+02 1.69928E+02-3.82206E+02
 -1       135 1.17029E+02 1.07106E+02 4.12878E+02 3.84996E+02-3.89902E+02 2.36794E+02
 -1       136-2.68222E+02 4.76497E+02 1.12602E+03 3.68889E+02-4.33190E+02 4.41989E+01
 -1       137-4.48745E+02 9.36660E+01 1.31608E+03-1.30530E+02 1.96771E+02-2.60855E+02
 -1       138-3.26357E+02-2.21593E+01-6.04200E+02-2.23430E+02-5.35853E+01-5.49593E+02
 -1       139-5.18080E+02 1.00085E+02 3.98783E+02-2.83893E+02 2.43979E+02-1.20913E+03
 -1       140-1.12698E+03 7.63071E+00-2.26590E+02 3.92020E+01 7.09069E+01-1.30809E+03
 -1       141-2.48665E+01-6.82988E+01-2.92247E+02 1.99192E+02-2.08209E+02-1.40223E+02
 -1       142-1.19843E+03 1.06045E+01-6.77328E+02-1.96248E+02 2.55151E+01-8.59033E+02
 -1       143-2.25942E+02-1.52770E+02 1.17108E+03-1.53903E+02 6.76955E+01-1.47276E+01
 -1       144-6.93165E+02 5.18045E+02 8.51104E+02-1.96361E+02 2.52233E+02-7.78492E+00
 -1       145 6.34310E+02-8.98726E+02-1.11920E+02-1.36474E+03 1.04000E+02-9.44367E+01
 -1       146-1.00933E+03 2.11281E+02-2.66973E+02-1.43029E+03 1.00476E+01 4.89008E+01
 -1       147 1.69667E+03-1.31230E+02 6.05918E+02-3.84317E+02-5.04086E+02 3.30652E+02
 -1       148 3.03780E+02 1.45947E+03-5.22080E+01 9.64722E+02-1.96475E+02-4.66545E+01
 -1       149 5.29196E+02-4.92098E+02 1.70757E+02-1.13637E+03-1.88942E+02-1.73057E+02
 -1       150 1.30833E+02-4.84249E+02-9.98176E+01-1.11629E+03 6.41056E+00-5.62046E+01
 -1       151 2.37870E+02-2.98496E+02-2.21274E+01-4.21747E+02-2.17497E+02-7.47517E+01
 -1       152-7.48232E+01-4.65390E+02-5.19154E+01-1.56134E+03 6.00428E+01 2.06131E+01
 -1       153-7.49889E+02-1.78768E+02 1.16433E+02-1.18558E+03 1.87127E+02 1.02198E+02
 -1       154-1.72861E+02-2.71352E+02-2.22634E+02-1.81862E+03 8.28894E+01 6.97101E+01
 -1       155 2.38164E+02-4.61086E+02 1.92909E+02-1.42748E+03-1.24731E+01-1.94719E+02
 -1       156-6.03623E+02-1.10463E+01-1.14543E+02-4.24537E+02-1.61464E+02 1.45611E+02
 -1       157-1.52822E+02-1.77017E+01 1.42552E+02-5.90776E+02-8.35665E+01 1.02988E+02
 -1       158-1.31725E+03-2.84002E+01-5.94540E+02-1.19906E+03-9.32652E-01-3.32906E+02
 -1       159 5.92321E+00-5.04577E+02-1.17528E+02-1.04080E+03-3.93176E+01-3.37777E+02
 -1       160 2.77220E+02-5.01224E+02-2.92169E+02-2.79374E+02-1.07913E+01-8.66408E+01
 -1       161 2.02263E+03-5.43817E+02 3.58554E+02-6.12002E+02-2.83954E+02 5.13589E+00
 -1       162 9.22463E+02-4.06106E+01 4.27299E+02-2.07172E+02-2.15995E+02 2.23025E+02
 -1       163 9.52096E+02 3.01134E+02 4.40070E+02-4.51782E+02-7.07900E+02 2.01077E+02
 -1       164 9.69792E+02-6.02880E+02 9.34896E+00-1.85905E+02-4.09368E+02 2.03804E+02
 -1       165 4.37090E+02 6.42212E+02 1.71275E+02 6.79715E+02-1.47161E+02 3.13657E+02
 -1       166 4.61307E+02 4.00232E+02-1.26062E+02 3.48434E+02-2.55813E+02-1.81547E+01
 -1       167-2.63376E+02 7.98343E+02-4.32245E+01 5.58509E+02-2.08613E+02-1.08674E+02
 -1       168-3.41893E+02-7.85094E+01-1.84415E+02-4.91118E+02 5.52966E+01 1.35513E+02
 -1       169 5.55462E+02 5.42710E+02-6.47312E+00 6.79987E+02-2.65796E+02-4.49984E+01
 -1       170-3.34324E+02-2.95121E+02 6.47123E+02 1.96094E+03 1.62916E+02-5.37617E+02
 -1       171-1.05704E+03-8.45017E+02 3.04461E+02 1.02003E+03-1.15127E+02 1.16752E+02
 -1       172 2.39849E+02-6.56579E+02 1.56580E+02 4.85247E+02 4.11172E+02-2.44318E+02
 -1       173-1.17026E+03 1.90798E+02-2.60763E+02 1.24760E+03-3.48316E+02-4.07940E+02
 -1       174 6.80664E+02-1.51554E+02-2.50592E+02 8.07342E+02 1.98193E+02-9.57367E+01
 -1       175-2.01068E+03 6.74329E+01 6.38868E+01 1.23080E+03-3.56556E+01 6.46631E+01
 -1       176-7.30375E+02-4.66138E+02-1.40287E+02 4.97699E+02-4.25518E+02-1.49229E+02
 -1       177 5.93934E+01 2.17882E+02 1.90390E+02 1.89436E+03-3.10965E+02-2.88685E+02
 -1       178-1.05825E+03-1.27423E+02 2.83931E+02 1.79752E+03-1.71116E+01-5.45242E+01
 -1       179-1.07173E+03-6.60914E+02 1.58084E+01 9.90444E+02-2.72668E+01 1.50859E+02
 -1       180-7.40151E+02-4.76564E+02-8.84581E+01 5.26737E+02-2.09099E+02 8.84276E+01
 -1       181-1.10280E+03-3.74993E+02 2.37989E+02 1.76453E+03-4.09894E+01-1.97947E+02
 -1       182 8.80435E+01-2.77823E+02-8.26339E+01 4.22868E+02 2.05862E+02 2.70853E+02
 -1       183-4.95689E+02-5.21412E+02 3.75869E+02 1.09687E+03 4.39472E+02-2.28872E+02
 -1       184 3.13118E+00-2.00822E+02 2.19066E+02 8.83874E+02 3.28050E+02 5.41500E+00
 -1       185 3.82664E+02-4.95325E+02 1.08354E+02 1.49677E+02-1.13588E+02-7.30935E+01
 -1       186 2.54213E+02-1.48087E+03-1.42851E+02-9.51752E+01 1.92386E+02-2.15722E+02
 -1       187-5.12657E+02-6.31235E+02 8.10102E+00 7.95754E+02-2.48386E+02-2.40906E+02
 -1       188-1.70690E+02 1.54631E+03 1.34335E+02 1.16646E+03 1.29759E+02-2.11550E+02
 -1       189 7.51986E+02 1.00304E+03 5.03879E+02 1.23045E+03 1.40268E+02-2.85025E+02
 -1       190 5.85483E+02-8.84381E+01-1.55081E+02 5.86176E+02 1.09481E+02 9.89675E+01
 -1       191 8.22848E+02-1.94668E+02 3.47515E+02 1.31345E+03 2.72303E+02-4.82773E+02
 -1       192 9.15222E+01 2.99778E+01-2.63416E+02 3.22408E+02 5.81136E+01 2.80772E+01
 -1       193 7.31466E+02 1.54976E+03 1.59041E+01 4.64874E+02 1.51842E+02-1.77353E+00
 -1       194-5.24106E+02-7.11806E+02-1.43476E+02 4.55806E+02-2.19264E+02 1.77754E+02
 -1       195-4.32320E+02 3.62920E+02 1.16577E+03 2.99089E+02 2.91652E+02-1.11178E+03
 -1       196-6.01482E+02 3.70501E+02 1.04356E+03-1.80482E+01 6.14149E+02-8.92363E+02
 -1       197 3.23607E+02-2.74494E+02 2.79899E+02-4.09932E+02-2.73115E+02-4.48363E+01
 -1       198 1.36722E+02-1.13978E+02 1.29289E+01-5.12022E+02-1.86359E+01-1.71241E+02
 -1       199 1.16179E+02 2.69876E+02 6.66231E+02-1.32279E+02 7.07150E+01-3.70145E+02
 -1       200-2.63430E+02 5.03929E+02 6.91563E+02-5.20301E+01 3.79930E+02-7.44982E+02
 -1       201 4.72134E+02-1.20089E+02 3.38765E+02-3.29348E+02 4.19855E+01-4.97955E+02
 -1       202 6.17562E+02-4.79512E+02 5.51926E+02-2.29501E+02-2.00749E+02-1.80806E+02
 -1       203 8.80043E+02-1.39584E+01 6.31318E+02 2.25294E+02-4.86090E+02 2.37603E+02
 -1       204-1.02527E+02-1.48020E+02 1.13094E+03 1.34152E+02 2.73585E+01-2.96933E+02
 -1       205 3.17701E+02-2.09779E+02 8.42573E+02-2.51196E+02-3.25295E+01-1.19990E+02
 -1       206 1.52198E+02-4.78067E+02 3.53247E+02-5.61752E+02 2.77640E+02-4.32116E+02
 -1       207 6.07152E+02 7.20950E+02 7.03471E+02 5.78562E+02-5.84349E+02-8.84318E+01
 -1       208 2.15547E+02 1.04188E+03 5.34911E+02 6.67572E+02-9.52933E+02 7.22449E+01
 -1       209-6.25731E+02-1.98391E+02 5.71357E+02 9.87629E+02-4.84997E+02-4.77908E+02
 -1       210-4.37464E+02-4.18554E+02 7.19126E+02 3.62916E+02-4.37281E+02-1.16075E+02
 -1       211 1.95688E+02-6.39082E+02 5.20157E+01 4.38462E+02 9.29488E+02-4.29250E+02
 -1       212 4.41833E+02-8.99284E+02-1.85976E+02 1.50262E+02 5.78779E+02-1.09057E+02
 -1       213-1.88614E+02-3.17673E+02 2.85504E+02 7.69285E+02 4.92571E+02-3.83079E+02
 -1       214-2.63206E+02-2.78926E+02-6.76554E+02 3.56090E+02 3.23602E+02 1.30955E+02
 -1       215 4.52384E+02-7.05503E+02 2.60418E+02-7.52247E+02-2.16248E+02-2.96964E+02
 -1       216 3.70732E+02-6.70255E+02 3.01041E+01-9.81073E+02-2.19270E+01-1.27608E+02
 -1       217 2.50333E+02 6.90385E+01 4.69486E+02 3.65985E+02 1.27478E+02-4.41698E+02
 -1       218 3.84804E+02-1.89640E+02 1.03325E+03-1.63945E+02-3.30619E+02-2.52278E+02
 -1       219 5.10370E+02 3.48030E+02 5.90709E+02 3.14122E+02 1.38439E+02-4.51134E+02
 -1       220 3.99573E+01 5.82436E+01 8.86621E+02-8.30795E+01 6.13518E+02-7.02080E+02
 -1       221-1.19159E+02 2.77605E+02 8.45327E+02 2.35434E+02 8.53964E+02-5.36533E+02
 -1       222-3.17112E+02-1.41291E+02 2.96067E+02 1.23891E+03 1.89790E+02-5.33278E+02
 -1       223-5.83094E+02-2.93563E+02 4.20511E+02 4.31498E+02 7.00727E+02-6.88495E+02
 -1       224-9.72360E+02-4.68431E+02 6.07476E+02 9.23338E+02 5.84276E+02-6.14912E+02
 -1       225-2.62137E+02-2.46611E+02 4.68511E+02 5.27923E+02 5.83622E+02-4.31465E+02
 -1       226-7.69361E+02-2.82126E+02 8.10047E+02 1.33040E+02 2.69942E+02-5.68930E+02
 -1       227-2.71164E+02-1.31422E+02 5.78101E+02-1.95249E+02 4.51998E+02-9.07339E+02
 -1       228-5.18543E+01-6.42932E+01 1.23864E+03 1.27848E+03 8.53762E+01-7.31994E+02
 -1       229-2.49339E+02-6.79065E+02-1.13675E+02-9.68821E+02 7.75421E+02-2.42105E+02
 -1       230-1.83484E+02-9.17113E+01 7.41231E+02-1.97961E+02 7.88186E+02-7.22740E+02
 -1       231-2.39037E+01 2.41660E+02 1.17719E+03 5.50162E+02 5.96125E+01-7.94105E+02
 -1       232 1.98552E+02 5.04981E+02 5.89845E+02 6.46842E+02 2.05549E+02-5.03567E+02
 -1       233-3.66277E+02 6.40256E+02 8.50522E+02 2.09000E+02 2.43361E+02-1.19107E+03
 -1       234-2.02201E+02-1.73190E+02 3.84516E+02-3.97564E+02 7.34077E+02-6.89800E+02
 -1       235 4.01818E+00-4.88134E+02 1.77595E+02-7.68581E+02 3.48890E+02-6.42524E+02
 -1       236-3.41310E+02-7.54560E+02 9.11751E+01-6.24823E+02 4.41943E+02-5.64488E+02
 -1       237-6.67085E+02-3.75021E+02 7.06485E+02-1.64935E+02 9.26929E+02-8.73806E+02
 -1       238-5.03214E+02-4.26802E+01 7.98565E+02 2.20656E+02 4.94133E+02-9.02785E+02
 -1       239 2.90751E+02 1.08925E+03 4.13812E+02 3.88532E+02 2.63300E+02 1.09283E+02
 -1       240-2.53732E+02 3.09394E+02 6.80816E+02 1.80231E+01 1.18358E+02-7.24716E+01
 -1       241-4.38877E+02 9.35547E+02 9.65429E+02-5.31262E+00 8.01194E+02-3.35561E+02
 -1       242-3.53368E+02 1.20546E+03 5.67978E+02 4.71775E+02 1.83860E+02-4.59606E+02
 -1       243 3.23094E+02 5.27713E+02 1.65952E+03-6.02558E+01 2.42006E+02-2.40964E+02
 -1       244-2.38332E+02 2.47922E+02 1.39425E+03-9.91279E+01 8.54280E+02-7.29574E+02
 -1       245-4.49282E+02 5.50808E+02 1.31225E+03 1.13893E+01 2.53301E+02-7.53694E+02
 -1       246 3.50420E+02 8.58751E+02 7.76313E+02 4.43683E+02-2.06374E+02-4.20698E+02
 -1       247-5.80581E+02 4.67153E+02 4.33316E+02-6.00685E+01 1.91529E+02-3.11534E+02
 -1       248-1.68495E+03 3.51893E+01-4.06111E+02 4.10196E+02-3.27918E+02-1.97281E+02
 -1       249-9.54075E+02 7.60325E+02 4.75000E+02-6.50506E+01-1.43723E+02-6.42047E+02
 -1       250-5.28743E+02 4.86254E+02 6.05480E+02 7.53309E+02-2.50627E+02-8.37065E+02
 -1       251-8.88339E+02 5.01061E+02 9.21667E+02 8.57976E+02-6.66432E+01-3.39853E+02
 -1       252-6.49032E+02 4.88415E+02 6.34585E+02-1.80644E+02-8.85436E+01 2.87251E+01
 -1       253-4.51389E+02 6.92779E+02 4.88105E+02-2.00622E+02 4.71520E+02-7.60678E+02
 -1       254-2.91877E+02 7.93670E+02 1.19088E+03-5.97222E+01 2.57780E+02-6.58124E+02
 -1       255-6.59428E+02 2.86995E+02 2.12059E+02 5.12829E+02-1.73821E+02-3.15116E+02
 -1       256-1.17473E+02 1.06830E+03 9.67868E+02 3.51898E+02 2.66233E+02-6.75118E+02
 -1       257-8.23334E+02 6.13517E+02 3.88184E+02-6.84552E+01 3.63911E+02-1.01688E+03
 -1       258-5.01642E+02 3.36174E+02 6.87035E+02 7.20704E+01 5.83279E+02-9.00097E+02
 -1       259-1.99365E+02 5.30112E+01 1.13911E+03-3.78136E+01 3.21665E+02-8.12895E+02
 -1       260-1.61515E+02-3.65759E+01-8.30313E+01-9.51229E+01 7.40486E+01-5.41796E+01
 -1       261-6.20414E+02-3.38942E+01-6.75744E+01-6.39495E+02 1.33596E+02 1.69082E+02
 -1       262 6.75418E+02 9.58290E+02 5.80489E+02 6.08304E+01-8.99468E+02 1.06207E+02
 -1       263-5.75820E+01-3.45165E+02-5.91218E+01 2.96835E+02 2.58685E+02-3.35904E+02
 -1       264 3.97361E+02 5.79161E+02 2.30825E+02 1.94971E+02 6.36583E+01-2.55490E+02
 -1       265 3.65614E+02-2.53240E+02 1.96335E+02-6.06388E+02-1.33336E+02-1.13860E+02
 -1       266-4.29031E+02 4.32382E+02-1.38977E+02-8.65243E+01 3.56061E+01-1.38263E+02
 -1       267-7.96031E+01-4.56776E+02 1.10243E+03 4.79251E+02-2.82950E+01-1.04170E+02
 -1       268-8.94590E+02-4.83381E+01-3.96747E+02-5.52995E+02-5.60202E+01-3.26618E+02
 -1       269-7.12399E+01-6.43563E+02-5.07429E+02 5.01855E+01 3.78992E+02-2.37333E+02
 -1       270 6.67087E+02 6.95140E+02 5.67079E+02-1.00556E+00-4.48216E+02 1.24797E+02
 -1       271-7.30644E+02 8.49388E+01-2.45143E+01-7.92852E+02 7.16417E+02-2.07342E+02
 -1       272-6.55637E+02 4.59316E+02 3.38652E+02-6.52511E+02 3.89348E+02-6.41549E+02
 -1       273 2.10335E+02-4.10348E+02 7.91418E+01-7.09820E+02 6.34462E+01-4.46534E+01
 -1       274-6.67546E+01-3.31455E+02 1.24679E+02 2.67569E+02 4.31790E+02-2.49153E+02
 -1       275-1.48244E+02-2.00732E+02 1.37819E+02 2.53543E+02 9.93410E+02-5.93023E+02
 -1       276-5.84804E+02-1.09195E+02 2.84092E+02-8.45424E+01 4.36482E+02-2.49815E+02
 -1       277-4.82864E+02-2.38061E+02 7.57254E+02 1.22297E+03 5.36557E+01-6.12469E+02
 -1       278-9.71679E+02 1.94511E+02-1.85764E+02-7.93569E+02 2.41363E+02-7.64856E+02
 -1       279 6.24174E+02 2.07621E+02 8.82868E+02 7.06900E+02 2.04411E+02-6.63187E+02
 -1       280-6.65154E+02-2.38160E+02-7.50590E+01-2.70282E+02 5.57057E+02-4.57540E+02
 -3
    1PSTEP                         3           1           1          
    1PGM                1.000000E+00                                  
    1PGK                1.483748E-02                                  
    1PHID                         -1                                  
    1PSUBC                         0                                  
    1PMODE                         1                                  
  100CL  101 1.93865E-02         280                     2    1MODAL      1
 -4  TOSTRAIN    6    1
 -5  EXX         1    4    1    1
 -5  EYY         1    4    2    2
 -5  EZZ         1    4    3    3
 -5  EXY         1    4    1    2
 -5  EYZ         1    4    2    3
 -5  EZX         1    4    3    1
 -1         1-9.64231E-04 3.16390E-04-5.46687E-04 1.40449E-03-1.90775E-03 5.15628E-05
 -1         2-1.29167E-03 1.79537E-03-1.19176E-03-8.61429E-04-1.68799E-03 1.02223E-03
 -1         3 1.35219E-03 1.93282E-04-1.25840E-03 2.23475E-03-1.97054E-03 1.87839E-03
 -1         4 6.52736E-04-4.04355E-03 1.68859E-03-1.32364E-03-3.30785E-03 1.43533E-03
 -1         5 1.58141E-03-1.88199E-03 2.92619E-03 2.55759E-03-2.64890E-03 1.96329E-05
 -1         6 1.58702E-03-2.63430E-03-2.04120E-03 2.45887E-04-3.04684E-03 8.54906E-04
 -1         7 9.72519E-04-2.19675E-05 8.64626E-04-4.80624E-04-1.33911E-03 1.44129E-03
 -1         8-5.44024E-04 2.03671E-03-2.15177E-03 9.94461E-04-1.65819E-03 9.45236E-04
 -1         9-2.08316E-03 5.08340E-03-5.75927E-03-4.32059E-04 1.45035E-03-7.79554E-04
 -1        10 2.84880E-04 5.29036E-04-1.75357E-03 8.36267E-04-1.33281E-03 1.07392E-03
 -1        11-4.32714E-05 2.96821E-03-5.56852E-03-4.05005E-04-1.32771E-03 1.72944E-04
 -1        12-5.92100E-05-2.12645E-03 7.90324E-04-5.95576E-03 2.13562E-03 4.38394E-04
 -1        13-2.57488E-04-1.15690E-03 6.83614E-04-1.81467E-03-2.29090E-04 7.87145E-04
 -1        14 5.55818E-04-1.04503E-03 2.13155E-04-9.31469E-04 2.51755E-04 4.30625E-04
 -1        15-1.16781E-03 1.13043E-03 3.25430E-04-1.62009E-03 2.97950E-03-1.81421E-03
 -1        16 1.75171E-03 7.45174E-04-2.67238E-03 4.53040E-04-9.98990E-05 3.12508E-04
 -1        17-2.10329E-03-8.30327E-04 3.95301E-03-4.95299E-04 4.41508E-04 1.09902E-03
 -1        18-2.74244E-03 1.22785E-02-2.54491E-03 3.32043E-03 2.89020E-03-3.00600E-04
 -1        19-2.03777E-03 9.23896E-03-3.11993E-03-1.87451E-04-1.63559E-04 7.11787E-04
 -1        20-1.62652E-03 2.75446E-03 9.30266E-04 1.76210E-03 1.71864E-03 8.85967E-04
 -1        21 5.91940E-05-4.59374E-03 6.84631E-03-1.77876E-03 4.78981E-03-2.44322E-03
 -1        22-2.54312E-03-4.02692E-03 9.89150E-03 5.00280E-05 7.38938E-04-8.15678E-05
 -1        23 4.47164E-04-7.75796E-04-1.48401E-03-8.41290E-04 1.57568E-04-9.56600E-04
 -1        24 9.57426E-05 1.23763E-03-3.36135E-05-6.15349E-04-3.25056E-03 1.92975E-03
 -1        25 1.23635E-03-1.00544E-03 1.77235E-03 2.55240E-03-4.03890E-04 1.19508E-03
 -1        26-3.21511E-03 2.50983E-03-5.12353E-04-2.97151E-03-3.50060E-03-3.82508E-04
 -1        27-5.75548E-03 1.27343E-03 8.01209E-03-8.12884E-04-1.70981E-03 1.13318E-03
 -1        28-1.69775E-04-8.84536E-04 3.73959E-03-1.27779E-04-1.82843E-03 1.38556E-03
 -1        29-2.23145E-03 1.61237E-03 2.24106E-03-6.41641E-04-2.01852E-03 2.34634E-03
 -1        30 3.34028E-03-7.64313E-03-7.14827E-04-2.12251E-03-1.05123E-03-3.13807E-04
 -1        31 2.94677E-03-8.48998E-03 1.06977E-04-1.19417E-03-7.59285E-04-3.19958E-04
 -1        32 1.13945E-04-8.49572E-04-1.04963E-03 3.53180E-04-2.31630E-03 1.48337E-03
 -1        33-2.66975E-03 1.62777E-03 1.03103E-03 2.50369E-04-9.12659E-05 2.03325E-03
 -1        34-2.29931E-03 8.64100E-04 4.21934E-04 4.48464E-05-6.57430E-04 1.61230E-03
 -1        35 2.49414E-03-1.50446E-03 1.37385E-03 3.07390E-03-9.67974E-04-1.06609E-03
 -1        36 1.45175E-03-1.56132E-05-1.66816E-03 1.44927E-03 2.15288E-04 4.30092E-03
 -1        37 6.56652E-04 2.41553E-04-5.59045E-04 1.27135E-03-1.64491E-04 1.59509E-03
 -1        38 6.39493E-04-1.34162E-03-8.54294E-04 1.27498E-03-1.54144E-03 1.88382E-03
 -1        39-8.23403E-03 3.24463E-03-9.99316E-04-3.58755E-03-5.89154E-04-4.05386E-03
 -1        40-2.53108E-03 1.51669E-03-1.03971E-03-2.09657E-03-3.98159E-04-7.97127E-04
 -1        41-1.93407E-03 8.82097E-04 9.47591E-04 3.18516E-04-1.21971E-04 2.40444E-04
 -1        42-1.02253E-02 2.37535E-03 4.76286E-03 6.91905E-03 3.51677E-04 1.86677E-03
 -1        43-7.71898E-03 9.16573E-04 3.56914E-03 2.36823E-03-8.15818E-04 6.28285E-04
 -1        44-2.49678E-03 1.11949E-03-6.33505E-04 2.42382E-03-2.25865E-04 3.86282E-04
 -1        45-2.19277E-03-1.77490E-03 2.98893E-03-1.49689E-03 8.72587E-03-3.32026E-03
 -1        46-9.72261E-04 4.57492E-03 8.06800E-04-1.72791E-03 5.82341E-04-2.73386E-03
 -1        47 2.65477E-03-2.91152E-03 5.19573E-04-3.05600E-03-1.24335E-03-1.08944E-03
 -1        48-2.69933E-03 1.64202E-03 4.20081E-03-1.13791E-03 2.25646E-03-2.92722E-04
 -1        49 8.43747E-04-9.31595E-04 1.92749E-04 2.10569E-04 2.53830E-03 1.70627E-03
 -1        50-1.89973E-03 4.97032E-03-5.40176E-04-1.10741E-03-1.58095E-03-4.24064E-04
 -1        51-1.14517E-03 7.15193E-03-4.52352E-03 4.29828E-04 7.99936E-04-1.36759E-03
 -1        52-2.70335E-03 2.80565E-03-1.45562E-03-5.10187E-04 4.58393E-03-2.13291E-03
 -1        53-1.00649E-03 8.91944E-04 1.60802E-03-1.62581E-03 5.06933E-03-2.42745E-03
 -1        54-6.03018E-04 2.03503E-03-2.09285E-03-2.17193E-03-2.19617E-04 2.93439E-04
 -1        55-1.46535E-04-7.46704E-04 5.41010E-04-5.26229E-04-1.68277E-03-1.18342E-03
 -1        56 3.77748E-04-1.43124E-03 5.73404E-04-1.36631E-03 4.19139E-03-1.11921E-03
 -1        57-7.16784E-05-2.90965E-03 1.10231E-03-3.72801E-03 3.78006E-04-1.24762E-03
 -1        58-3.45406E-04-1.58270E-03 9.90698E-04-2.47487E-03 6.06864E-03-1.10257E-03
 -1        59 1.48037E-03-2.95271E-03 7.40775E-04-1.76017E-03 2.59282E-03 7.60596E-04
 -1        60 6.78524E-04 3.95197E-04-5.33609E-04 9.91156E-04-1.09223E-04 1.76414E-03
 -1        61-2.42405E-04-2.05444E-03 1.06285E-03 1.99326E-04 6.37745E-03-5.65462E-04
 -1        62-1.66561E-03 8.91084E-03-7.61141E-04-7.21619E-04 1.08389E-03-1.81244E-03
 -1        63-3.30173E-03 5.26002E-03 7.73417E-04-2.09518E-04 5.49893E-03-2.65734E-03
 -1        64-2.60996E-03 9.77984E-04 4.20708E-03-1.61737E-03 3.57845E-03 4.43905E-05
 -1        65 1.81147E-04-2.16851E-03 2.82429E-03-1.11911E-03-1.26062E-03 7.21222E-04
 -1        66-2.87423E-03 1.10809E-03 3.88318E-03-2.29819E-03 7.06679E-03-2.30631E-03
 -1        67-1.50231E-03-2.18135E-04 4.24420E-04-1.84160E-03 5.53353E-03-2.57137E-03
 -1        68-3.80181E-03 7.02461E-03 3.61958E-04 2.26119E-03 4.07430E-03-4.87854E-04
 -1        69 8.90436E-04 4.96295E-04-1.01766E-03-3.73809E-04 2.66220E-03-9.49603E-06
 -1        70 7.84586E-04 1.21938E-03-1.75735E-05 3.20529E-03 3.28810E-03-2.15662E-03
 -1        71 3.50805E-03-5.55004E-03-2.37864E-03 6.01974E-04 5.01926E-03 4.73795E-04
 -1        72-5.95649E-04-2.29503E-03 4.58305E-03-1.54195E-03-5.15987E-03-1.64393E-03
 -1        73-2.67189E-03 8.03683E-03-1.18510E-03 2.53504E-03-8.03989E-03-1.80556E-04
 -1        74-2.01054E-03 2.56481E-03 2.12472E-03-7.56551E-04 4.86533E-03 8.07700E-04
 -1        75 9.74255E-04-4.55539E-03 2.00536E-03-1.13427E-03-3.87847E-03-6.04622E-04
 -1        76-7.74370E-04 6.70869E-04 1.23532E-03 1.54989E-04-3.29915E-03-6.15054E-05
 -1        77-3.33523E-03-3.45496E-05 5.47649E-03-2.38086E-03-3.78400E-03 1.15851E-03
 -1        78 2.30103E-03-5.59645E-03-2.21764E-04-1.16285E-04 1.77006E-03-2.22920E-03
 -1        79-2.20641E-04-9.47212E-05 1.80361E-03 7.80788E-04-3.16174E-03-1.97775E-03
 -1        80-2.41384E-03 3.28536E-03 3.20398E-03 2.06063E-03-2.47097E-03-4.01071E-04
 -1        81-3.36336E-03 6.24338E-03-6.67559E-04-7.05155E-04-7.11642E-03-5.05093E-04
 -1        82-8.95461E-04 4.76229E-03-6.66313E-04 1.17180E-03-5.10373E-03 7.50924E-06
 -1        83-3.30829E-03 4.72466E-03 3.08238E-03 1.79199E-03-5.13252E-03-1.74976E-04
 -1        84-2.79305E-03 6.11522E-03-1.02888E-03 1.96354E-03-4.94041E-03-5.59642E-04
 -1        85-1.44920E-03 4.97221E-03-4.56973E-04 7.66475E-04-7.81079E-04 3.51678E-04
 -1        86-1.40826E-03 2.88980E-03 1.00072E-04 6.08669E-04 1.94578E-03 1.23501E-03
 -1        87-4.38650E-04-1.10342E-03 3.51693E-03 7.60960E-04 4.74889E-04 8.41075E-04
 -1        88-9.15366E-04-2.64507E-03 6.33828E-03-1.85314E-03 6.54655E-03-5.98894E-05
 -1        89-8.19035E-04 3.13282E-03-4.01457E-04 1.31045E-03 7.58250E-03-9.82616E-04
 -1        90 1.07902E-04-2.95007E-03 3.74729E-03 4.18167E-04 8.96500E-03-2.57283E-03
 -1        91 3.82070E-03-8.47668E-03-1.01379E-03-5.41422E-04 3.09409E-03-1.03960E-03
 -1        92 2.83041E-03-4.47671E-03-2.71289E-03 4.67471E-04 1.28470E-03 1.04350E-03
 -1        93 1.44821E-03-3.51765E-03 4.16195E-04 1.25222E-03 7.62862E-03-1.51692E-03
 -1        94 1.90792E-03-4.31776E-03 4.37980E-04-4.43886E-04 4.50405E-03-1.29973E-03
 -1        95-8.87880E-04 5.85799E-04 1.15476E-03-2.37747E-03 1.95339E-03-2.62411E-03
 -1        96-8.39075E-04 3.45889E-04-6.64378E-04 3.95136E-04 4.34140E-04-2.96769E-03
 -1        97-1.05706E-03-2.20538E-03 9.24577E-03-3.71208E-05-8.91135E-04-3.83779E-03
 -1        98-1.07482E-04-7.55148E-04 1.67904E-03-1.03891E-03-1.23704E-03 8.54660E-04
 -1        99-3.96459E-03 1.45844E-03-1.37546E-03-5.93748E-04 1.01797E-03 1.11783E-03
 -1       100-1.54765E-03 6.61159E-04-8.27394E-05-1.63897E-04-1.49115E-03-8.19925E-05
 -1       101-2.01673E-03 1.12782E-03-6.87143E-05-7.29083E-04-6.64312E-04 1.73033E-03
 -1       102-1.68085E-03 2.55767E-03-2.96492E-03-2.26220E-03 1.78945E-03-2.75403E-03
 -1       103-1.05827E-03-1.90214E-04 2.35005E-03-1.35544E-03-3.95235E-04 1.27877E-03
 -1       104-2.19616E-03 8.31227E-04-1.68985E-04-2.95246E-03 2.14281E-03-1.75346E-03
 -1       105-3.90111E-03 4.53519E-03-4.88031E-03-4.77014E-04-9.50514E-05-5.65484E-04
 -1       106-3.12623E-03 1.92048E-03-2.45790E-03-6.38264E-04-3.03156E-04 1.91788E-03
 -1       107-1.00985E-03 2.75294E-04 1.11502E-03-6.77008E-05 1.49758E-03-1.51351E-03
 -1       108 5.14445E-05 4.55275E-04-2.02533E-03 7.88608E-04 1.01619E-03 1.98846E-03
 -1       109 4.00212E-05-1.29361E-04-2.58711E-04-1.12366E-03 1.63501E-03 1.88763E-03
 -1       110-1.20753E-03-1.51942E-03 5.03272E-03 3.35745E-04 2.52493E-03-2.52543E-03
 -1       111 9.58098E-05-2.00214E-03 1.26994E-03-4.81340E-04 1.35470E-03-3.25094E-03
 -1       112 4.38441E-04-9.70680E-05-1.83707E-03 1.10420E-04-1.47481E-03-1.10897E-03
 -1       113-1.64603E-03-9.16257E-04 5.07812E-03-1.52828E-04 3.98951E-04-8.78505E-04
 -1       114-8.60373E-04-3.85941E-03 1.11088E-02-9.05463E-04 2.48779E-03-2.31909E-03
 -1       115-4.96356E-04 7.10490E-04 1.50105E-03-7.74063E-04 1.23363E-04 1.92314E-03
 -1       116 2.46389E-04-1.75351E-03 4.57931E-03 2.52602E-04-2.07998E-04-1.49593E-03
 -1       117 5.33343E-04-2.21936E-03 6.88121E-03 1.19373E-03-2.29619E-03-2.65534E-03
 -1       118-1.86243E-03 1.43134E-03 8.17901E-04-8.12116E-04-2.98313E-04 1.96483E-03
 -1       119 1.39921E-04 3.61826E-04-1.97441E-03-1.21053E-04 1.59293E-03 3.16104E-03
 -1       120-3.38633E-03 5.78693E-05 3.98358E-03-1.71677E-04 1.97718E-03-7.97756E-03
 -1       121-1.56684E-03-5.58423E-04 3.37856E-03 4.49904E-03-3.63877E-03 5.50345E-04
 -1       122-2.64022E-03 1.34639E-03-1.33179E-03 5.83657E-05-1.38895E-03-4.31610E-03
 -1       123-3.09000E-04-3.79115E-03 6.86790E-03 5.50201E-04 1.28801E-03-3.38903E-03
 -1       124-8.32811E-03 3.90710E-03 2.03879E-03-1.50947E-03-1.97036E-03-2.71017E-04
 -1       125-4.59186E-03-5.37625E-04 6.09843E-03 3.39531E-03 9.38267E-04-1.12867E-03
 -1       126-1.73185E-03-2.89100E-03 7.43865E-03 9.32259E-04 2.43263E-04-5.82930E-03
 -1       127-5.69144E-03 3.76476E-04 6.96188E-03 3.45675E-03-1.02256E-03-3.52213E-03
 -1       128 1.31000E-03-1.32682E-03 2.17876E-03 3.66768E-04-2.63233E-04-2.81486E-04
 -1       129-1.11878E-02 3.56789E-03 3.50860E-03 2.80640E-03-9.55684E-04 9.99610E-05
 -1       130-5.23702E-03 1.68002E-03 4.61212E-03-1.35539E-03-1.08454E-03-6.71661E-03
 -1       131-3.84219E-03 3.59151E-04 9.89054E-04-1.26103E-03-3.14116E-03 8.29470E-04
 -1       132-6.38538E-03 1.59976E-03 4.72705E-04 2.04620E-03-1.94631E-03-2.30433E-03
 -1       133-7.77826E-03 2.94334E-03 5.57834E-04-2.02241E-03 7.63410E-04-7.35338E-03
 -1       134-2.97623E-03-1.40767E-03 3.93644E-03 1.05027E-03 1.10453E-03-2.48434E-03
 -1       135-1.94831E-04-2.59330E-04 1.72819E-03 2.50248E-03-2.53436E-03 1.53916E-03
 -1       136-3.74488E-03 1.09579E-03 5.31769E-03 2.39778E-03-2.81574E-03 2.87293E-04
 -1       137-4.35834E-03-8.32668E-04 7.11301E-03-8.48447E-04 1.27901E-03-1.69556E-03
 -1       138-6.92246E-04 1.28504E-03-2.49822E-03-1.45230E-03-3.48304E-04-3.57235E-03
 -1       139-3.33870E-03 6.79370E-04 2.62091E-03-1.84531E-03 1.58587E-03-7.85933E-03
 -1       140-5.30644E-03 2.06850E-03 5.46070E-04 2.54813E-04 4.60895E-04-8.50256E-03
 -1       141 4.16487E-04 1.34177E-04-1.32149E-03 1.29474E-03-1.35336E-03-9.11448E-04
 -1       142-4.99207E-03 2.86666E-03-1.60490E-03-1.27561E-03 1.65848E-04-5.58372E-03
 -1       143-2.65718E-03-2.18156E-03 6.42348E-03-1.00037E-03 4.40021E-04-9.57296E-05
 -1       144-5.51955E-03 2.35332E-03 4.51820E-03-1.27634E-03 1.63951E-03-5.06020E-05
 -1       145 4.68752E-03-5.27722E-03-1.62975E-04-8.87079E-03 6.75999E-04-6.13838E-04
 -1       146-4.96311E-03 2.97086E-03-1.37792E-04-9.29690E-03 6.53092E-05 3.17855E-04
 -1       147 7.77129E-03-4.11003E-03 6.81437E-04-2.49806E-03-3.27656E-03 2.14924E-03
 -1       148-5.91992E-04 6.91998E-03-2.90591E-03 6.27070E-03-1.27709E-03-3.03254E-04
 -1       149 3.12799E-03-3.51042E-03 7.98138E-04-7.38640E-03-1.22812E-03-1.12487E-03
 -1       150 1.53026E-03-2.46777E-03 3.10357E-05-7.25587E-03 4.16686E-05-3.65330E-04
 -1       151 1.67028E-03-1.81609E-03-1.96986E-05-2.74135E-03-1.41373E-03-4.85886E-04
 -1       152 4.01843E-04-2.13684E-03 5.50744E-04-1.01487E-02 3.90278E-04 1.33985E-04
 -1       153-3.65594E-03 5.63446E-05 1.97515E-03-7.70625E-03 1.21633E-03 6.64289E-04
 -1       154-1.23328E-04-7.63516E-04-4.46850E-04-1.18211E-02 5.38781E-04 4.53116E-04
 -1       155 1.59308E-03-2.95204E-03 1.29893E-03-9.27863E-03-8.10750E-05-1.26567E-03
 -1       156-2.82973E-03 1.02202E-03 3.49290E-04-2.75949E-03-1.04952E-03 9.46474E-04
 -1       157-9.51386E-04-7.31037E-05 9.68547E-04-3.84005E-03-5.43182E-04 6.69424E-04
 -1       158-5.65182E-03 2.72568E-03-9.54229E-04-7.79388E-03-6.06224E-06-2.16389E-03
 -1       159 9.62774E-04-2.35548E-03 1.60339E-04-6.76518E-03-2.55564E-04-2.19555E-03
 -1       160 2.57619E-03-2.48370E-03-1.12484E-03-1.81593E-03-7.01433E-05-5.63165E-04
 -1       161 1.03911E-02-6.29087E-03-4.25452E-04-3.97801E-03-1.84570E-03 3.33833E-05
 -1       162 4.03228E-03-2.22770E-03 8.13716E-04-1.34662E-03-1.40397E-03 1.44966E-03
 -1       163 3.64867E-03-5.82578E-04 3.20505E-04-2.93658E-03-4.60135E-03 1.30700E-03
 -1       164 5.73925E-03-4.48311E-03-5.03623E-04-1.20838E-03-2.66089E-03 1.32473E-03
 -1       165 9.65220E-04 2.29851E-03-7.62577E-04 4.41814E-03-9.56548E-04 2.03877E-03
 -1       166 1.89528E-03 1.49829E-03-1.92262E-03 2.26482E-03-1.66278E-03-1.18005E-04
 -1       167-2.44956E-03 4.45161E-03-1.01857E-03 3.63031E-03-1.35599E-03-7.06382E-04
 -1       168-1.31508E-03 3.96915E-04-2.91472E-04-3.19227E-03 3.59428E-04 8.80835E-04
 -1       169 1.97295E-03 1.89007E-03-1.67962E-03 4.41992E-03-1.72767E-03-2.92489E-04
 -1       170-2.19963E-03-1.94480E-03 4.17978E-03 1.27461E-02 1.05895E-03-3.49451E-03
 -1       171-4.47438E-03-3.09621E-03 4.37540E-03 6.63017E-03-7.48326E-04 7.58890E-04
 -1       172 1.94924E-03-3.87754E-03 1.40800E-03 3.15410E-03 2.67262E-03-1.58807E-03
 -1       173-5.74634E-03 3.10052E-03 1.65374E-04 8.10940E-03-2.26405E-03-2.65161E-03
 -1       174 4.00654E-03-1.40288E-03-2.04663E-03 5.24772E-03 1.28825E-03-6.22288E-04
 -1       175-1.02504E-02 3.25735E-03 3.23430E-03 8.00022E-03-2.31761E-04 4.20310E-04
 -1       176-2.74224E-03-1.02470E-03 1.09334E-03 3.23504E-03-2.76587E-03-9.69988E-04
 -1       177-3.15442E-04 7.14737E-04 5.36036E-04 1.23133E-02-2.02127E-03-1.87645E-03
 -1       178-5.52599E-03 5.24357E-04 3.19816E-03 1.16839E-02-1.11226E-04-3.54407E-04
 -1       179-4.39100E-03-1.72068E-03 2.67801E-03 6.43789E-03-1.77234E-04 9.80584E-04
 -1       180-2.85322E-03-1.13991E-03 1.38278E-03 3.42379E-03-1.35914E-03 5.74779E-04
 -1       181-5.30848E-03-5.77753E-04 3.40663E-03 1.14695E-02-2.66431E-04-1.28666E-03
 -1       182 9.80903E-04-1.39723E-03-1.28501E-04 2.74864E-03 1.33810E-03 1.76054E-03
 -1       183-2.26013E-03-2.42733E-03 3.40500E-03 7.12966E-03 2.85657E-03-1.48767E-03
 -1       184-1.17107E-05-1.33741E-03 1.39187E-03 5.74518E-03 2.13233E-03 3.51975E-05
 -1       185 2.49377E-03-3.21315E-03 7.10763E-04 9.72900E-04-7.38320E-04-4.75108E-04
 -1       186 3.70664E-03-7.57137E-03 1.12573E-03-6.18639E-04 1.25051E-03-1.40219E-03
 -1       187-1.62858E-03-2.39934E-03 1.75634E-03 5.17240E-03-1.61451E-03-1.56589E-03
 -1       188-3.37441E-03 7.78607E-03-1.39175E-03 7.58201E-03 8.43431E-04-1.37508E-03
 -1       189 1.49955E-03 3.13142E-03-1.13150E-04 7.99790E-03 9.11741E-04-1.85266E-03
 -1       190 3.29269E-03-1.08779E-03-1.52097E-03 3.81014E-03 7.11625E-04 6.43289E-04
 -1       191 3.88497E-03-2.72888E-03 7.95303E-04 8.53741E-03 1.76997E-03-3.13802E-03
 -1       192 8.07768E-04 4.07730E-04-1.49933E-03 2.09565E-03 3.77738E-04 1.82502E-04
 -1       193 1.30883E-03 6.62775E-03-3.34232E-03 3.02168E-03 9.86976E-04-1.15280E-05
 -1       194-1.33761E-03-2.55766E-03 1.13649E-03 2.96274E-03-1.42522E-03 1.15540E-03
 -1       195-4.45464E-03 7.14418E-04 5.93296E-03 1.94408E-03 1.89574E-03-7.22658E-03
 -1       196-5.12850E-03 1.18938E-03 5.56428E-03-1.17313E-04 3.99197E-03-5.80036E-03
 -1       197 1.60993E-03-2.27773E-03 1.32582E-03-2.66456E-03-1.77525E-03-2.91436E-04
 -1       198 8.35183E-04-7.94366E-04 3.05291E-05-3.32814E-03-1.21133E-04-1.11307E-03
 -1       199-8.23267E-04 1.75763E-04 2.75208E-03-8.59815E-04 4.59648E-04-2.40595E-03
 -1       200-3.11039E-03 1.87745E-03 3.09707E-03-3.38196E-04 2.46954E-03-4.84238E-03
 -1       201 2.03265E-03-1.81679E-03 1.16576E-03-2.14076E-03 2.72906E-04-3.23671E-03
 -1       202 2.97919E-03-4.15179E-03 2.55255E-03-1.49176E-03-1.30487E-03-1.17524E-03
 -1       203 3.47418E-03-2.33683E-03 1.85746E-03 1.46441E-03-3.15959E-03 1.54442E-03
 -1       204-1.98701E-03-2.28272E-03 6.03052E-03 8.71985E-04 1.77830E-04-1.93006E-03
 -1       205 6.39316E-04-2.78931E-03 4.05098E-03-1.63277E-03-2.11442E-04-7.79932E-04
 -1       206 9.48217E-04-3.14850E-03 2.25504E-03-3.65139E-03 1.80466E-03-2.80875E-03
 -1       207 8.99129E-04 1.63881E-03 1.52520E-03 3.76065E-03-3.79827E-03-5.74807E-04
 -1       208-1.28745E-03 4.08371E-03 7.88416E-04 4.33922E-03-6.19407E-03 4.69592E-04
 -1       209-3.68810E-03-9.10393E-04 4.09297E-03 6.41959E-03-3.15248E-03-3.10640E-03
 -1       210-2.63818E-03-2.51527E-03 4.87966E-03 2.35895E-03-2.84233E-03-7.54488E-04
 -1       211 1.85904E-03-3.56697E-03 9.25170E-04 2.85001E-03 6.04167E-03-2.79013E-03
 -1       212 3.83705E-03-4.88021E-03-2.43703E-04 9.76704E-04 3.76206E-03-7.08871E-04
 -1       213-8.94817E-04-1.73370E-03 2.18695E-03 5.00035E-03 3.20171E-03-2.49001E-03
 -1       214 1.17190E-04 1.50086E-05-2.56957E-03 2.31458E-03 2.10342E-03 8.51205E-04
 -1       215 2.92955E-03-4.59672E-03 1.68177E-03-4.88960E-03-1.40561E-03-1.93026E-03
 -1       216 2.81389E-03-3.95253E-03 5.99804E-04-6.37697E-03-1.42526E-04-8.29454E-04
 -1       217 4.43880E-04-7.34537E-04 1.86837E-03 2.37890E-03 8.28606E-04-2.87103E-03
 -1       218 6.58597E-04-3.07529E-03 4.87353E-03-1.06564E-03-2.14903E-03-1.63981E-03
 -1       219 1.14374E-03 8.85305E-05 1.66595E-03 2.04179E-03 8.99855E-04-2.93237E-03
 -1       220-1.21751E-03-1.09865E-03 4.28581E-03-5.40017E-04 3.98786E-03-4.56352E-03
 -1       221-2.28019E-03 2.98772E-04 3.98897E-03 1.53032E-03 5.55077E-03-3.48747E-03
 -1       222-1.81773E-03-6.74888E-04 2.16794E-03 8.05292E-03 1.23364E-03-3.46631E-03
 -1       223-3.10589E-03-1.22394E-03 3.41754E-03 2.80474E-03 4.55472E-03-4.47522E-03
 -1       224-5.07037E-03-1.79483E-03 5.19857E-03 6.00170E-03 3.79780E-03-3.99693E-03
 -1       225-1.64353E-03-1.54262E-03 3.10568E-03 3.43150E-03 3.79354E-03-2.80452E-03
 -1       226-4.63869E-03-1.47166E-03 5.62746E-03 8.64761E-04 1.75462E-03-3.69804E-03
 -1       227-2.02584E-03-1.11752E-03 3.49439E-03-1.26912E-03 2.93798E-03-5.89770E-03
 -1       228-2.02080E-03-2.10165E-03 6.36744E-03 8.31011E-03 5.54945E-04-4.75796E-03
 -1       229-5.75839E-05-2.85080E-03 8.24232E-04-6.29734E-03 5.04023E-03-1.57368E-03
 -1       230-1.89170E-03-1.29518E-03 4.11895E-03-1.28675E-03 5.12321E-03-4.69781E-03
 -1       231-2.24779E-03-5.21628E-04 5.55931E-03 3.57605E-03 3.87481E-04-5.16168E-03
 -1       232-6.49481E-04 1.34231E-03 1.89393E-03 4.20447E-03 1.33607E-03-3.27318E-03
 -1       233-4.06755E-03 2.47491E-03 3.84164E-03 1.35850E-03 1.58185E-03-7.74199E-03
 -1       234-1.32800E-03-1.13942E-03 2.48567E-03-2.58417E-03 4.77150E-03-4.48370E-03
 -1       235 4.85899E-04-2.71309E-03 1.61415E-03-4.99577E-03 2.26778E-03-4.17640E-03
 -1       236-7.11471E-04-3.39760E-03 2.09968E-03-4.06135E-03 2.87263E-03-3.66917E-03
 -1       237-3.83262E-03-1.93420E-03 5.09558E-03-1.07208E-03 6.02504E-03-5.67974E-03
 -1       238-3.64990E-03-6.56429E-04 4.81167E-03 1.43426E-03 3.21186E-03-5.86810E-03
 -1       239-8.00845E-04 4.38943E-03-9.48892E-07 2.52545E-03 1.71145E-03 7.10341E-04
 -1       240-2.75397E-03 9.06344E-04 3.32059E-03 1.17150E-04 7.69328E-04-4.71066E-04
 -1       241-5.04585E-03 3.88791E-03 4.08214E-03-3.45320E-05 5.20776E-03-2.18115E-03
 -1       242-4.42699E-03 5.70536E-03 1.56176E-03 3.06654E-03 1.19509E-03-2.98744E-03
 -1       243-1.66538E-03-3.35357E-04 7.02139E-03-3.91662E-04 1.57304E-03-1.56627E-03
 -1       244-3.65491E-03-4.94260E-04 6.95684E-03-6.44331E-04 5.55282E-03-4.74223E-03
 -1       245-5.04100E-03 1.45959E-03 6.40898E-03 7.40303E-05 1.64645E-03-4.89901E-03
 -1       246-7.00495E-04 2.60366E-03 2.06781E-03 2.88394E-03-1.34143E-03-2.73454E-03
 -1       247-4.25361E-03 2.55666E-03 2.33672E-03-3.90445E-04 1.24494E-03-2.02497E-03
 -1       248-7.86837E-03 3.31254E-03 4.44089E-04 2.66628E-03-2.13146E-03-1.28232E-03
 -1       249-6.62336E-03 4.52023E-03 2.66563E-03-4.22829E-04-9.34199E-04-4.17331E-03
 -1       250-4.28132E-03 2.31616E-03 3.09114E-03 4.89651E-03-1.62908E-03-5.44092E-03
 -1       251-6.57579E-03 2.45531E-03 5.18925E-03 5.57684E-03-4.33181E-04-2.20905E-03
 -1       252-4.92966E-03 2.46375E-03 3.41385E-03-1.17418E-03-5.75533E-04 1.86713E-04
 -1       253-4.02827E-03 3.40882E-03 2.07844E-03-1.30404E-03 3.06488E-03-4.94441E-03
 -1       254-4.43621E-03 2.61985E-03 5.20169E-03-3.88194E-04 1.67557E-03-4.27781E-03
 -1       255-4.04572E-03 2.10603E-03 1.61894E-03 3.33339E-03-1.12984E-03-2.04825E-03
 -1       256-3.64161E-03 4.06589E-03 3.41311E-03 2.28734E-03 1.73052E-03-4.38827E-03
 -1       257-5.61922E-03 3.72031E-03 2.25564E-03-4.44959E-04 2.36542E-03-6.60970E-03
 -1       258-4.04302E-03 1.40278E-03 3.68338E-03 4.68458E-04 3.79131E-03-5.85063E-03
 -1       259-2.78501E-03-1.14457E-03 5.91510E-03-2.45789E-04 2.09082E-03-5.28381E-03
 -1       260-6.28166E-04 1.83940E-04-1.18019E-04-6.18299E-04 4.81316E-04-3.52167E-04
 -1       261-2.94987E-03 8.62511E-04 6.43590E-04-4.15672E-03 8.68373E-04 1.09903E-03
 -1       262 1.06892E-03 2.90759E-03 4.51884E-04 3.95398E-04-5.84654E-03 6.90343E-04
 -1       263 3.18520E-04-1.55077E-03 3.08511E-04 1.92943E-03 1.68145E-03-2.18338E-03
 -1       264 7.71826E-04 1.95353E-03-3.10658E-04 1.26731E-03 4.13779E-04-1.66069E-03
 -1       265 1.91343E-03-2.10913E-03 8.13116E-04-3.94152E-03-8.66683E-04-7.40089E-04
 -1       266-2.58526E-03 3.01392E-03-6.99909E-04-5.62408E-04 2.31440E-04-8.98707E-04
 -1       267-1.36650E-03-3.81812E-03 6.31671E-03 3.11513E-03-1.83918E-04-6.77105E-04
 -1       268-3.80532E-03 1.69531E-03-5.69343E-04-3.59446E-03-3.64131E-04-2.12302E-03
 -1       269 1.37029E-03-2.34981E-03-1.46494E-03 3.26206E-04 2.46345E-03-1.54266E-03
 -1       270 1.44210E-03 1.62445E-03 7.92057E-04-6.53613E-06-2.91341E-03 8.11183E-04
 -1       271-3.74386E-03 1.55743E-03 8.45987E-04-5.15354E-03 4.65671E-03-1.34772E-03
 -1       272-4.47514E-03 2.77206E-03 1.98774E-03-4.24132E-03 2.53076E-03-4.17007E-03
 -1       273 1.54848E-03-2.48595E-03 6.95729E-04-4.61383E-03 4.12400E-04-2.90247E-04
 -1       274-2.36099E-05-1.74416E-03 1.22071E-03 1.73920E-03 2.80663E-03-1.61949E-03
 -1       275-6.46852E-04-9.88022E-04 1.21256E-03 1.64803E-03 6.45717E-03-3.85465E-03
 -1       276-3.18636E-03-9.49058E-05 2.46146E-03-5.49525E-04 2.83714E-03-1.62380E-03
 -1       277-3.19311E-03-1.60189E-03 4.86766E-03 7.94931E-03 3.48762E-04-3.98105E-03
 -1       278-4.87151E-03 2.70872E-03 2.36932E-04-5.15820E-03 1.56886E-03-4.97156E-03
 -1       279 1.48514E-03-1.22246E-03 3.16665E-03 4.59485E-03 1.32867E-03-4.31072E-03
 -1       280-2.85594E-03-8.04804E-05 9.79676E-04-1.75683E-03 3.62087E-03-2.97401E-03
 -3
 9999
